Sr3 Nb3 H14                             
   1.00000000000000     
     6.9172480829619936    1.0574612467565758   -0.0138592429720568
     1.1091929815412398    5.3121487584514631   -0.3662906688415208
    -1.1530251206783952   -2.9461893421768037    6.4013596146250498
   H    Sr   Nb   H    Nb   H    Nb   H    Sr   H    Sr   H 
     4     1     1     2     1     3     1     3     1     1     1     1
Direct
  0.8235734031626627  0.7077351979936247  0.3648288369084688
  0.4600045577364150  0.7317535693136242  0.7731655187976919
  0.3792343475176867  0.2517577724153688  0.1003652868363551
  0.3328565288832774  0.3278291174565215  0.0201325557055422
  0.5083195883959872  0.6502366800569159  0.4216799150479900
  0.3758385011803476  0.4168749612754026  0.7260924882843196
  0.8685455597156377  0.1864670524357240  0.4506795839273040
  0.3975887556305938  0.6672061939225657  0.0394843955434240
  0.9978304105211243  0.4831620111570017  0.7027662432621662
  0.7990201377124619  0.8548019276169789  0.7159038412853537
  0.2169675220241573  0.1099093691162292  0.6670814377199351
  0.0253471555736160  0.6955336151216013  0.9961994933927659
  0.9849784008099914  0.9130621469987106  0.5842728738786898
  0.8888213311289033  0.3093924140275335  0.8297599962787293
  0.1679396704218203  0.5362775042497755  0.5444188945181377
  0.1201019287022357  0.7077575087652003  0.3280954693538717
  0.0859492861482104  0.1670310018669700  0.1577470078338273
  0.7162120124328584  0.2901811777389393  0.1271385070394110
  0.6854202180253409  0.8456976075046295  0.0930342498098546
  0.4431646842766749  0.1765261709666898  0.4186634045761681
 
  0.00000000E+00  0.00000000E+00  0.00000000E+00
  0.00000000E+00  0.00000000E+00  0.00000000E+00
  0.00000000E+00  0.00000000E+00  0.00000000E+00
  0.00000000E+00  0.00000000E+00  0.00000000E+00
  0.00000000E+00  0.00000000E+00  0.00000000E+00
  0.00000000E+00  0.00000000E+00  0.00000000E+00
  0.00000000E+00  0.00000000E+00  0.00000000E+00
  0.00000000E+00  0.00000000E+00  0.00000000E+00
  0.00000000E+00  0.00000000E+00  0.00000000E+00
  0.00000000E+00  0.00000000E+00  0.00000000E+00
  0.00000000E+00  0.00000000E+00  0.00000000E+00
  0.00000000E+00  0.00000000E+00  0.00000000E+00
  0.00000000E+00  0.00000000E+00  0.00000000E+00
  0.00000000E+00  0.00000000E+00  0.00000000E+00
  0.00000000E+00  0.00000000E+00  0.00000000E+00
  0.00000000E+00  0.00000000E+00  0.00000000E+00
  0.00000000E+00  0.00000000E+00  0.00000000E+00
  0.00000000E+00  0.00000000E+00  0.00000000E+00
  0.00000000E+00  0.00000000E+00  0.00000000E+00
  0.00000000E+00  0.00000000E+00  0.00000000E+00
