Sr1 Nb1 H8                              
   1.00000000000000     
     3.3065019298180198   -0.0741886720698991    0.4691447652668785
     0.0458041796135777    3.3312058561767031    0.3062036316001150
     2.4506116994509024    1.6822682399607072    9.1005370618057828
   Sr   Nb   H 
     1     1     8
Direct
  0.8681881987586627  0.3211291457910724  0.2764523989036451
  0.7362909459193768  0.0739454071168622  0.9419496480939430
  0.1138106378884999  0.9877942529921674  0.0558283118489123
  0.2389645024776932  0.7347806989593297  0.3888108690522258
  0.5064680507866618  0.9143589829131971  0.1515813684890746
  0.3824133707790912  0.1748867232050911  0.8124081256264435
  0.8722338484742653  0.6652932026125133  0.8150809480259574
  0.6149221856433181  0.4859749116311121  0.0561507925620768
  0.4868275329386646  0.0835719739338431  0.5906458454620050
  0.3731667263337738  0.9504647008447999  0.5609496919357183
 
  0.00000000E+00  0.00000000E+00  0.00000000E+00
  0.00000000E+00  0.00000000E+00  0.00000000E+00
  0.00000000E+00  0.00000000E+00  0.00000000E+00
  0.00000000E+00  0.00000000E+00  0.00000000E+00
  0.00000000E+00  0.00000000E+00  0.00000000E+00
  0.00000000E+00  0.00000000E+00  0.00000000E+00
  0.00000000E+00  0.00000000E+00  0.00000000E+00
  0.00000000E+00  0.00000000E+00  0.00000000E+00
  0.00000000E+00  0.00000000E+00  0.00000000E+00
  0.00000000E+00  0.00000000E+00  0.00000000E+00
