pymatgen with grid density = 1885 / number of atoms
0
Gamma
8 7 4
