H24
1.0
3.916821 -0.000000 0.000000
-1.110156 5.049850 -0.000000
-1.084614 -1.051434 7.371296
H
24
direct
0.268726 0.021678 0.221692 H
0.306679 0.048359 0.114712 H
0.451285 0.055736 0.817723 H
0.417811 0.196452 0.855531 H
0.371860 0.144947 0.957499 H
0.804083 0.397934 0.120215 H
0.724183 0.435991 0.209113 H
0.734320 0.971168 0.153612 H
0.809814 0.851603 0.137855 H
0.245049 0.463946 0.163487 H
0.323623 0.597972 0.143433 H
0.428134 0.656388 0.851629 H
0.485392 0.585659 0.758086 H
0.455812 0.682657 0.991861 H
0.953695 0.676406 0.759806 H
0.926465 0.209718 0.794938 H
0.140915 0.889970 0.511668 H
0.169686 0.757908 0.448268 H
0.630310 0.801068 0.547190 H
0.684875 0.791121 0.441740 H
0.555855 0.230995 0.549470 H
0.616648 0.341978 0.493673 H
0.138225 0.355534 0.521949 H
0.011769 0.260613 0.440174 H
