Sr1 Nb1 H6                              
   1.00000000000000     
     3.1133446653321233    0.1049498592583992    0.2930041694365531
     0.0408081646876813    3.7703761042611408   -0.1964123522795913
    -0.7646984412924756   -1.4264320152082703    6.2924994337165829
   H    Sr   H    Nb
     2     1     4     1
Direct
  0.1365740830880120  0.3606972199585854  0.3632333403039124
  0.1744119990817470  0.8650197728585562  0.4342679406771162
  0.1672141109029533  0.7080878596755465  0.7421231505605053
  0.0262391514788669  0.3157972564980713  0.9578746779521493
  0.2908865375052774  0.3063795807943617  0.9678187136272652
  0.6712638047258865  0.1864626797282629  0.6276257243218677
  0.1485217193137706  0.8797219874161232  0.1313389739579464
  0.6562235939034795  0.0311626430704922  0.3241394785992184
 
  0.00000000E+00  0.00000000E+00  0.00000000E+00
  0.00000000E+00  0.00000000E+00  0.00000000E+00
  0.00000000E+00  0.00000000E+00  0.00000000E+00
  0.00000000E+00  0.00000000E+00  0.00000000E+00
  0.00000000E+00  0.00000000E+00  0.00000000E+00
  0.00000000E+00  0.00000000E+00  0.00000000E+00
  0.00000000E+00  0.00000000E+00  0.00000000E+00
  0.00000000E+00  0.00000000E+00  0.00000000E+00
