ALGO = Normal
PREC = Accurate
IBRION = 2
ISIF = 3
LCHARG = .FALSE.
LREAL = False
LWAVE = False
ISMEAR = 2
SIGMA = 0.1
NPAR = 4
NSW = 60
