Sr5 Nb1 H17
1.0
6.024760 -0.109281 0.583799
-0.529511 6.291516 -0.053179
-1.625432 -1.667734 7.481507
Sr Nb H
5 1 17
direct
0.953107 0.746449 0.998996 Sr
0.531319 0.800261 0.386621 Sr
0.052826 0.289658 0.307656 Sr
0.527510 0.178874 0.067628 Sr
0.075114 0.218633 0.765362 Sr
0.574017 0.351729 0.598667 Nb
0.506483 0.734552 0.902955 H
0.228850 0.461311 0.079699 H
0.530443 0.746072 0.002576 H
0.782759 0.957682 0.222768 H
0.664010 0.655940 0.650105 H
0.783762 0.532356 0.203319 H
0.892320 0.120586 0.999664 H
0.464768 0.268442 0.784805 H
0.319076 0.494762 0.639925 H
0.317008 0.137366 0.518777 H
0.766350 0.426664 0.810057 H
0.454110 0.429489 0.388460 H
0.626948 0.180620 0.396632 H
0.692130 0.097520 0.636556 H
0.872235 0.417110 0.559623 H
0.225252 0.933173 0.860729 H
0.258492 0.960508 0.203019 H
