Sr2 Nb1 H9                              
   1.00000000000000     
     3.5006457569291567   -0.2052261094059082   -0.2799140306478696
     0.3351682649242002    5.0147737476238410    0.2935000292889619
    -1.7615697313613676   -1.1985301084926476    7.7337450408910522
   H    Nb   H    Sr   H    Sr   H 
     4     1     2     1     1     1     2
Direct
  0.1590116559955435  0.1440766989640262  0.1837292555529697
  0.1295315531448029  0.0718193317222101  0.9116801984238608
  0.2660567026187256  0.0629750217358616  0.8521474937113550
  0.1745280706953587  0.7545599608840085  0.2070998356952499
  0.2981648183611795  0.0121751985742858  0.3968544910368592
  0.7311228985896819  0.0490322171678430  0.2948555183970988
  0.6213202798028407  0.5520911981272176  0.8857972914930696
  0.6563157420981541  0.4723263323782450  0.1781152901598546
  0.8523314873757577  0.8317221879551123  0.4773584331293866
  0.9784226722556796  0.4817165181115525  0.6749575753739412
  0.4605612385862701  0.1312656480942545  0.6425059003391073
  0.3144538804760064  0.3916476862854100  0.4242647166872447
 
  0.00000000E+00  0.00000000E+00  0.00000000E+00
  0.00000000E+00  0.00000000E+00  0.00000000E+00
  0.00000000E+00  0.00000000E+00  0.00000000E+00
  0.00000000E+00  0.00000000E+00  0.00000000E+00
  0.00000000E+00  0.00000000E+00  0.00000000E+00
  0.00000000E+00  0.00000000E+00  0.00000000E+00
  0.00000000E+00  0.00000000E+00  0.00000000E+00
  0.00000000E+00  0.00000000E+00  0.00000000E+00
  0.00000000E+00  0.00000000E+00  0.00000000E+00
  0.00000000E+00  0.00000000E+00  0.00000000E+00
  0.00000000E+00  0.00000000E+00  0.00000000E+00
  0.00000000E+00  0.00000000E+00  0.00000000E+00
