Sr2 Nb1 H9                              
   1.00000000000000     
     3.4918129532494144   -0.2057399349451491   -0.3014128003368399
     0.3341268768804621    5.0051123911797335    0.3295328238844505
    -1.7985778505351027   -1.1394724417121018    7.7640497013959768
   H    Nb   H    Sr   H    Sr   H 
     4     1     2     1     1     1     2
Direct
  0.1544568734645064  0.1463902766970278  0.1830883871202705
  0.1306348951437877  0.0682174980328739  0.9116989619199837
  0.2680965965226205  0.0624762114288435  0.8540097967707038
  0.1737497813258163  0.7580096043035970  0.2085217421866015
  0.2979890042535289  0.0135330574356880  0.3971675898857877
  0.7285378334557506  0.0489603851159547  0.2938820899742324
  0.6283512898198205  0.5472766155233015  0.8858069514570267
  0.6520677804767984  0.4760224298460764  0.1778195481219021
  0.8523702566656192  0.8325525377466577  0.4779030852349279
  0.9804424694153351  0.4794986940859237  0.6743615624985384
  0.4619908709465400  0.1299303823207874  0.6421898141751398
  0.3131333485098772  0.3925403074632948  0.4229164706548904
 
  0.00000000E+00  0.00000000E+00  0.00000000E+00
  0.00000000E+00  0.00000000E+00  0.00000000E+00
  0.00000000E+00  0.00000000E+00  0.00000000E+00
  0.00000000E+00  0.00000000E+00  0.00000000E+00
  0.00000000E+00  0.00000000E+00  0.00000000E+00
  0.00000000E+00  0.00000000E+00  0.00000000E+00
  0.00000000E+00  0.00000000E+00  0.00000000E+00
  0.00000000E+00  0.00000000E+00  0.00000000E+00
  0.00000000E+00  0.00000000E+00  0.00000000E+00
  0.00000000E+00  0.00000000E+00  0.00000000E+00
  0.00000000E+00  0.00000000E+00  0.00000000E+00
  0.00000000E+00  0.00000000E+00  0.00000000E+00
