Sr3 Nb2 H12
1.0
3.681255 -0.008102 0.002733
0.026657 5.420652 -0.015028
1.826665 2.640249 8.781537
Sr Nb H
3 2 12
direct
0.939053 0.407031 0.529821 Sr
0.565335 0.033926 0.282789 Sr
0.778325 0.224749 0.910508 Sr
0.336354 0.816774 0.711693 Nb
0.151664 0.639494 0.111183 Nb
0.894679 0.648078 0.711854 H
0.898349 0.989687 0.713159 H
0.374177 0.121038 0.761815 H
0.370124 0.463899 0.757266 H
0.441335 0.105496 0.532354 H
0.440577 0.709627 0.530364 H
0.487831 0.701276 0.917211 H
0.989823 0.729929 0.918365 H
0.184511 0.004101 0.082523 H
0.069604 0.324719 0.272486 H
0.062164 0.730849 0.295861 H
0.616237 0.596701 0.184956 H
