pymatgen with grid density = 1910 / number of atoms
0
Monkhorst
4 4 4
