pymatgen with grid density = 1687 / number of atoms
0
Gamma
7 5 3
