Sr1 Nb1 H8                              
   1.00000000000000     
     3.2729329093990351    0.6564187405501135   -0.1106710331532093
    -0.7344386495741190    3.8508127327664257    0.3896739616536155
     0.0562982078685976    1.3380897747278964    6.2003819706247798
   Sr   H    Nb   H 
     1     6     1     2
Direct
  0.1632653917703821  0.5131476119801519  0.8404819626087821
  0.6561568627171833  0.3035738074418860  0.1020450533558339
  0.1581095075272941  0.3373879559428204  0.5317353488202247
  0.6677445145998383  0.0055575365213454  0.7396736652059958
  0.0929180881766409  0.8926031489061833  0.0856869360808819
  0.1470999649858068  0.3796487429117184  0.2508153592100379
  0.3199636116982265  0.9159220361924142  0.0591812164994095
  0.6936622520918677  0.1950049067091779  0.4148174464208549
  0.6723260747138440  0.7118971522024857  0.3706259977712260
  0.1473057317189114  0.9099921011918031  0.4827460140267527
 
  0.00000000E+00  0.00000000E+00  0.00000000E+00
  0.00000000E+00  0.00000000E+00  0.00000000E+00
  0.00000000E+00  0.00000000E+00  0.00000000E+00
  0.00000000E+00  0.00000000E+00  0.00000000E+00
  0.00000000E+00  0.00000000E+00  0.00000000E+00
  0.00000000E+00  0.00000000E+00  0.00000000E+00
  0.00000000E+00  0.00000000E+00  0.00000000E+00
  0.00000000E+00  0.00000000E+00  0.00000000E+00
  0.00000000E+00  0.00000000E+00  0.00000000E+00
  0.00000000E+00  0.00000000E+00  0.00000000E+00
