Sr1 Nb1 H10                             
   1.00000000000000     
     3.3353706100212848    0.1031690068829998    0.0107169049615310
     1.5190260961785980    3.5262942937443955    0.2351482294601399
     0.8638958278807362    1.9335700914231861    9.6074258430581647
   H    Nb   H    Sr   H 
     2     1     7     1     1
Direct
  0.2148667352982233  0.1946264373733138  0.5091815218378105
  0.6451533648095562  0.2287191933450836  0.5853432145007946
  0.7846884427853598  0.0934572050956227  0.4281737824100424
  0.6354582049391497  0.7591278695589552  0.8768958492993504
 -0.0220535508239030  0.1061150500321105  0.7561673040564465
  0.0927338121988003  0.1691083178497313  0.8017394710113277
  0.8004881436502242  0.5478297583476671  0.9094165506620689
  0.4986009305146037  0.7168507572596478  0.3767893432428173
  0.3812612924463567  0.1681577317202099  0.0177467765829067
 -0.1019110824801005  0.7692212231536615  0.5979071194340480
  0.0779298468138053  0.7229247934010896  0.1014217825445542
  0.7834768598479271  0.2489176628629162  0.2192862844178428
 
  0.00000000E+00  0.00000000E+00  0.00000000E+00
  0.00000000E+00  0.00000000E+00  0.00000000E+00
  0.00000000E+00  0.00000000E+00  0.00000000E+00
  0.00000000E+00  0.00000000E+00  0.00000000E+00
  0.00000000E+00  0.00000000E+00  0.00000000E+00
  0.00000000E+00  0.00000000E+00  0.00000000E+00
  0.00000000E+00  0.00000000E+00  0.00000000E+00
  0.00000000E+00  0.00000000E+00  0.00000000E+00
  0.00000000E+00  0.00000000E+00  0.00000000E+00
  0.00000000E+00  0.00000000E+00  0.00000000E+00
  0.00000000E+00  0.00000000E+00  0.00000000E+00
  0.00000000E+00  0.00000000E+00  0.00000000E+00
