Sr2 Nb1 H7
1.0
3.417186 -0.445368 -0.056794
0.739724 5.615652 0.117960
0.413976 2.696907 5.177768
Sr Nb H
2 1 7
direct
0.200509 0.694825 0.093202 Sr
0.208298 0.356804 0.768580 Sr
0.700030 0.001132 0.431551 Nb
0.706324 0.660230 0.430737 H
0.206206 0.838442 0.431937 H
0.208801 0.192970 0.431503 H
0.700211 0.689522 0.774349 H
0.698494 0.034941 0.088165 H
0.710554 0.094041 0.709355 H
0.702299 0.372939 0.156694 H
