Sr6 Nb1 H16                             
   1.00000000000000     
     7.2174412635530079    1.0775100848033716   -0.3074527426728094
     2.9634019739788462    6.9672858961406918    1.0729137136852878
    -2.0657677141779649    0.7510610433738369    7.0040478264217851
   H    Sr   H    Sr   H    Sr   H    Nb   H    Sr   H 
     1     1     2     1     1     1     6     1     4     3     2
Direct
  0.9470566714616119  0.5707939203651606  0.5473273452718964
  0.6154085391760991  0.5096352648772234  0.4810808807877595
  0.9525371465351327  0.4016071842605058  0.8779624819575241
  0.8685196814354310  0.7157043625214241  0.0855896661749980
  0.6399038760279410  0.5910794869788248  0.9513215212961823
  0.8324987414971441  0.3344117854858055  0.2711485171962139
  0.2080468735629740  0.5047979266111315  0.9366347212037143
  0.2783315568755129  0.6999558521099575  0.6722934847562506
  0.3995473771205789  0.6531568833819337  0.1198121510784800
  0.4306114951367641  0.3184322325889657  0.3395493688554407
  0.9501175371322311  0.9374058520474517  0.1572700641000812
  0.5560562179230151  0.1110849578148325  0.0993377270159783
  0.7238125239372670  0.2430891015415932  0.8873950397394247
  0.6953817557892304  0.0105016800800810  0.9227526219866096
  0.4489975591739974  0.9790628467391717  0.8764084921002717
  0.9473443819784875  0.8985901637251168  0.8489037753247733
  0.6541306969178063  0.8928238089108443  0.7148369432098350
  0.9822833499061847  0.1497143481421424  0.6282130141023613
  0.8220866284398424  0.9526949846807505  0.4472952350870460
  0.1556251010444872  0.0335528163356606  0.0012233044091339
  0.2147416565042846  0.2174806959044866  0.4890632645172173
  0.4198026508324640  0.9211751286810972  0.3589736616923304
  0.4131389815915167  0.2726017162158182  0.7604147181364806
 
  0.00000000E+00  0.00000000E+00  0.00000000E+00
  0.00000000E+00  0.00000000E+00  0.00000000E+00
  0.00000000E+00  0.00000000E+00  0.00000000E+00
  0.00000000E+00  0.00000000E+00  0.00000000E+00
  0.00000000E+00  0.00000000E+00  0.00000000E+00
  0.00000000E+00  0.00000000E+00  0.00000000E+00
  0.00000000E+00  0.00000000E+00  0.00000000E+00
  0.00000000E+00  0.00000000E+00  0.00000000E+00
  0.00000000E+00  0.00000000E+00  0.00000000E+00
  0.00000000E+00  0.00000000E+00  0.00000000E+00
  0.00000000E+00  0.00000000E+00  0.00000000E+00
  0.00000000E+00  0.00000000E+00  0.00000000E+00
  0.00000000E+00  0.00000000E+00  0.00000000E+00
  0.00000000E+00  0.00000000E+00  0.00000000E+00
  0.00000000E+00  0.00000000E+00  0.00000000E+00
  0.00000000E+00  0.00000000E+00  0.00000000E+00
  0.00000000E+00  0.00000000E+00  0.00000000E+00
  0.00000000E+00  0.00000000E+00  0.00000000E+00
  0.00000000E+00  0.00000000E+00  0.00000000E+00
  0.00000000E+00  0.00000000E+00  0.00000000E+00
  0.00000000E+00  0.00000000E+00  0.00000000E+00
  0.00000000E+00  0.00000000E+00  0.00000000E+00
  0.00000000E+00  0.00000000E+00  0.00000000E+00
