H16
1.0
2.849554 -0.054415 -0.286259
-0.347737 5.941423 1.381468
-1.013103 0.579483 5.764570
H
16
direct
0.105306 0.998553 0.597942 H
0.969493 0.037332 0.669430 H
0.674095 0.909907 0.226297 H
0.737173 0.481454 0.353242 H
0.004689 0.902940 0.225536 H
0.778087 0.273668 0.852997 H
0.900891 0.534042 0.443720 H
0.289123 0.238063 0.227996 H
0.144243 0.278122 0.294338 H
0.515919 0.739570 0.620356 H
0.466880 0.614156 0.675391 H
0.122852 0.636884 0.058458 H
0.113730 0.279208 0.854863 H
0.448952 0.274482 0.859893 H
0.177262 0.673352 0.934773 H
0.340348 0.905983 0.227828 H
