Sr3 Nb1 H10                             
   1.00000000000000     
     5.0443248879762832   -0.0134599010671661   -0.0069732275041122
     0.0522563525080632    5.2887506241448010    0.0018644575740898
     2.5149881661252405    2.4108135899465402    5.8890194851557744
   Sr   H    Nb   H    Sr
     1     9     1     1     2
Direct
  0.6701891578801739  0.2997860360952750  0.8812817646016486
  0.8563061916104754  0.4618438311168769  0.4788157555091642
  0.8406864037916904  0.8914392192703260  0.0770915248903452
  0.1782515150309221  0.4196805021678380  0.8704138016871611
  0.8264025370765912  0.4821539874548617  0.1031593718272630
  0.2831991869198468  0.4906084859833199  0.1065572870396437
  0.1947404493428053  0.1160185593632154  0.7143881262784770
  0.0280460165221688  0.7419753489022820  0.6762498767977280
  0.2929719442473981  0.9128577913294711  0.0604571372116946
  0.4590057822358341  0.0899892767872758  0.2976160550721020
  0.1449982558109336  0.7426505818544842  0.9103804773638293
  0.5088791403031538  0.7673455173311156  0.6781801684269361
  0.4107256995592099  0.5688498143011224  0.3891380381009439
  0.9308737196688105  0.0609330480425433  0.3597646151930611
 
  0.00000000E+00  0.00000000E+00  0.00000000E+00
  0.00000000E+00  0.00000000E+00  0.00000000E+00
  0.00000000E+00  0.00000000E+00  0.00000000E+00
  0.00000000E+00  0.00000000E+00  0.00000000E+00
  0.00000000E+00  0.00000000E+00  0.00000000E+00
  0.00000000E+00  0.00000000E+00  0.00000000E+00
  0.00000000E+00  0.00000000E+00  0.00000000E+00
  0.00000000E+00  0.00000000E+00  0.00000000E+00
  0.00000000E+00  0.00000000E+00  0.00000000E+00
  0.00000000E+00  0.00000000E+00  0.00000000E+00
  0.00000000E+00  0.00000000E+00  0.00000000E+00
  0.00000000E+00  0.00000000E+00  0.00000000E+00
  0.00000000E+00  0.00000000E+00  0.00000000E+00
  0.00000000E+00  0.00000000E+00  0.00000000E+00
