Sr1 Nb1 H14                             
   1.00000000000000     
     4.7539412407281896   -0.1709393174998209    0.5222723508845042
    -0.1881970168759227    5.2871609611998158   -0.5443762633582665
     2.0151348129440936   -0.6619840962340212    5.9804670946009431
   Sr   Nb   H 
     1     1    14
Direct
  0.2676497472502253  0.5839110437484867 -0.0090977253587998
  0.8895304465501286  0.9471697529655659  0.6371053872227626
  0.5968394504233148  0.1036428161160515  0.9249871519148342
  0.5752992275785920  0.4900278258624541  0.3131526128011737
  0.6034101117454256  0.3725723885009702  0.2146987178853641
  0.6515618544667121  0.1937597664251692  0.5750506478126201
  0.5048034912941396  0.8179358654213255  0.6795041741001208
  0.0311445994384267  0.1304431383277590  0.0439364733456356
  0.7985497213593070  0.2856909395165467  0.5703750531777370
  0.0511789608270130  0.1522154044229435  0.1591972179772353
  0.0636182998866467  0.2433606020706029  0.7506775515182651
  0.0316547413461498  0.6189439194450965  0.4909638516159668
  0.3510137490934062  0.9166379980902268  0.4303119695820742
  0.2907310513288843  0.0151480626164312  0.3755707551060338
  0.8666916039751905  0.8480555766082704  0.3521827085491309
  0.8504189434364360  0.7507988998620948  0.8634004527498527
 
  0.00000000E+00  0.00000000E+00  0.00000000E+00
  0.00000000E+00  0.00000000E+00  0.00000000E+00
  0.00000000E+00  0.00000000E+00  0.00000000E+00
  0.00000000E+00  0.00000000E+00  0.00000000E+00
  0.00000000E+00  0.00000000E+00  0.00000000E+00
  0.00000000E+00  0.00000000E+00  0.00000000E+00
  0.00000000E+00  0.00000000E+00  0.00000000E+00
  0.00000000E+00  0.00000000E+00  0.00000000E+00
  0.00000000E+00  0.00000000E+00  0.00000000E+00
  0.00000000E+00  0.00000000E+00  0.00000000E+00
  0.00000000E+00  0.00000000E+00  0.00000000E+00
  0.00000000E+00  0.00000000E+00  0.00000000E+00
  0.00000000E+00  0.00000000E+00  0.00000000E+00
  0.00000000E+00  0.00000000E+00  0.00000000E+00
  0.00000000E+00  0.00000000E+00  0.00000000E+00
  0.00000000E+00  0.00000000E+00  0.00000000E+00
