Sr2 Nb1 H7
1.0
3.124834 -0.000000 0.000000
-0.402517 6.476419 -0.000000
-1.306780 -0.375483 11.132670
H Sr H Nb H
2 2 3 1 2
direct
0.164772 0.898700 0.510945 H
0.878989 0.833850 0.427006 H
0.142164 0.578088 0.535262 Sr
0.999863 0.021426 0.266456 Sr
0.176491 0.392418 0.883702 H
0.950234 0.354408 0.827681 H
0.843468 0.030524 0.812796 H
0.451539 0.949903 0.799550 Nb
0.651417 0.778547 0.846453 H
0.227370 0.236411 0.639524 H
