Sr2 Nb1 H9                              
   1.00000000000000     
     5.3374862845285840   -0.2076677207952821   -0.0301739945475486
     0.2318121878080824    6.1055293881982466   -1.2259921410558470
     0.0144566886335465   -0.5455109118450919    4.4243616760643478
   H    Sr   H    Nb   Sr   H 
     4     1     1     1     1     4
Direct
  0.6727890758732072  0.0569683622331196  0.8717677338691316
  0.6786520588414947  0.4241719793013430  0.8060567936322636
  0.9276064053629173  0.7018875312911625  0.0934415553975251
  0.9232937502275822  0.8072624454680786  0.2412313522481940
  0.9262924804507782  0.3234581028578980  0.2578343523661307
  0.1901679825468686  0.0647296816953574  0.3953600018731022
  0.4267301008629719  0.1860611341408299  0.6964342406226107
  0.4266163618894657  0.7731278598909190  0.0084175971710707
  0.4256920625918608  0.8779756807275880  0.5557106658986780
  0.1784035579990635  0.0558647159262319  0.8701553402701792
  0.6647411235951565  0.0631701958021350  0.3976548891757241
  0.1733670397586301  0.4242473106653278  0.8030564774753972
 
  0.00000000E+00  0.00000000E+00  0.00000000E+00
  0.00000000E+00  0.00000000E+00  0.00000000E+00
  0.00000000E+00  0.00000000E+00  0.00000000E+00
  0.00000000E+00  0.00000000E+00  0.00000000E+00
  0.00000000E+00  0.00000000E+00  0.00000000E+00
  0.00000000E+00  0.00000000E+00  0.00000000E+00
  0.00000000E+00  0.00000000E+00  0.00000000E+00
  0.00000000E+00  0.00000000E+00  0.00000000E+00
  0.00000000E+00  0.00000000E+00  0.00000000E+00
  0.00000000E+00  0.00000000E+00  0.00000000E+00
  0.00000000E+00  0.00000000E+00  0.00000000E+00
  0.00000000E+00  0.00000000E+00  0.00000000E+00
