pymatgen with grid density = 2160 / number of atoms
0
Monkhorst
4 4 4
