Sr1 Nb2 H21
1.0
5.221638 -0.004054 -0.646576
0.349956 5.496909 -0.652686
-0.736672 1.324863 6.090359
Sr Nb H
1 2 21
direct
0.289350 0.759485 0.659683 Sr
0.760004 0.145784 0.878941 Nb
0.710262 0.131535 0.352599 Nb
0.101457 0.313158 0.908750 H
0.995491 0.422336 0.919460 H
0.072949 0.960048 0.903504 H
0.517086 0.124633 0.053930 H
0.629129 0.462671 0.852360 H
0.935590 0.035660 0.180026 H
0.829353 0.816051 0.417849 H
0.368675 0.325647 0.318645 H
0.324409 0.186751 0.330723 H
0.786343 0.472241 0.327193 H
0.791277 0.426937 0.201333 H
0.050506 0.131831 0.496239 H
0.468790 0.911259 0.341864 H
0.420756 0.161959 0.721479 H
0.068512 0.701468 0.256901 H
0.178031 0.598771 0.277727 H
0.420828 0.583259 0.045686 H
0.377516 0.709561 0.070041 H
0.671815 0.839959 0.911433 H
0.742516 0.960669 0.641228 H
0.737973 0.335849 0.590098 H
