Sr2 Nb1 H10                             
   1.00000000000000     
     6.3780555889891426   -0.1054271488901450   -0.1751069183513592
     3.0347023408715983    4.9117138489419032   -0.2840121434470300
     3.0133625251247831   -1.7904236812962462    4.6917065535596834
   Sr   Nb   H 
     2     1    10
Direct
  0.5402707014095839  0.8090201633516964  0.0143603427798862
  0.0436353907295883  0.6262046015911277  0.2205804762602673
  0.0771812608321811  0.0572913011550535  0.7821276944506345
  0.5461659623951266  0.2179093692588866  0.5457140446186159
  0.6557711719856576  0.2408958505370532  0.4342150826079771
  0.6488655870033629  0.3264624441455325  0.9319998121387357
  0.4902770760048527  0.9137705541775870  0.6036293434704199
  0.1886508785035180  0.7872658678761408  0.4687552388255335
  0.0075682188185250  0.4044391374961327  0.9001458743739605
  0.0489922568387328  0.1297378200316446  0.1140814969288938
  0.1137756166107906  0.2370143073415770  0.5021874509089573
  0.8614065162019766  0.9243478767091937  0.9899637952819290
  0.3157503626660970  0.7094637063283880  0.7986033473541910
 
  0.00000000E+00  0.00000000E+00  0.00000000E+00
  0.00000000E+00  0.00000000E+00  0.00000000E+00
  0.00000000E+00  0.00000000E+00  0.00000000E+00
  0.00000000E+00  0.00000000E+00  0.00000000E+00
  0.00000000E+00  0.00000000E+00  0.00000000E+00
  0.00000000E+00  0.00000000E+00  0.00000000E+00
  0.00000000E+00  0.00000000E+00  0.00000000E+00
  0.00000000E+00  0.00000000E+00  0.00000000E+00
  0.00000000E+00  0.00000000E+00  0.00000000E+00
  0.00000000E+00  0.00000000E+00  0.00000000E+00
  0.00000000E+00  0.00000000E+00  0.00000000E+00
  0.00000000E+00  0.00000000E+00  0.00000000E+00
  0.00000000E+00  0.00000000E+00  0.00000000E+00
