H25                                     
   1.00000000000000     
     6.0384046512332681   -0.3375420720204440    0.1444865771578464
    -0.4511934053489868    4.4368359495275449   -0.0633967229239795
    -0.1379403303966177   -0.3059870005489827    5.7096297157809470
   H 
    25
Direct
  0.1705308753350242  0.6730266235834154  0.4272354957815346
  0.3573145376861809  0.3535050243609109  0.2374598525148058
  0.4708437121686774  0.3840129251427480  0.1872739231692903
  0.7615348439318963  0.5791421042157563  0.3282493185023615
  0.7996078371761635  0.4348920266791908  0.2814052994568902
  0.1844600277513869  0.6887933592254074  0.2810319025178065
  0.3130106316095512  0.2704413313653003  0.6001382536233432
  0.3819959477785568  0.1486467343230487  0.5727591115328965
  0.8431602008194137  0.2940822222277562  0.6465006902356749
  0.9520894332835640  0.2446452045400853  0.6154660879130613
  0.3188417234792347  0.7272733991405503  0.8398039341730273
  0.3481336101684840  0.7554189339321115  0.9774924494022447
  0.8753894583289624  0.6602029100536907  0.0007175109563801
  0.9756518901115840  0.6472475799415706  0.9267188191533599
  0.7153453619143693  0.7275186730653345  0.6611525343866941
  0.5919259604127582  0.6816086613384968  0.6634641511781560
  0.2399262885174281  0.6948990341608403  0.6190343751432208
  0.0869004665547367  0.1453328662700293  0.9136805150847744
  0.2033308351518665  0.2020829637355599  0.9537854396598695
  0.5711164800043931  0.9402539347994453  0.3658669044627957
  0.5299973113057866  0.9436718445551282  0.2432110140256998
  0.5826113401789426  0.1359601255464495  0.9230340522469724
  0.7062695269005674  0.1874056485490448  0.9271001606700808
  0.0270558002842853  0.0458700340713920  0.2833476697714752
  0.9038208991461810  0.0360128351767474  0.2897015344375620
 
  0.00000000E+00  0.00000000E+00  0.00000000E+00
  0.00000000E+00  0.00000000E+00  0.00000000E+00
  0.00000000E+00  0.00000000E+00  0.00000000E+00
  0.00000000E+00  0.00000000E+00  0.00000000E+00
  0.00000000E+00  0.00000000E+00  0.00000000E+00
  0.00000000E+00  0.00000000E+00  0.00000000E+00
  0.00000000E+00  0.00000000E+00  0.00000000E+00
  0.00000000E+00  0.00000000E+00  0.00000000E+00
  0.00000000E+00  0.00000000E+00  0.00000000E+00
  0.00000000E+00  0.00000000E+00  0.00000000E+00
  0.00000000E+00  0.00000000E+00  0.00000000E+00
  0.00000000E+00  0.00000000E+00  0.00000000E+00
  0.00000000E+00  0.00000000E+00  0.00000000E+00
  0.00000000E+00  0.00000000E+00  0.00000000E+00
  0.00000000E+00  0.00000000E+00  0.00000000E+00
  0.00000000E+00  0.00000000E+00  0.00000000E+00
  0.00000000E+00  0.00000000E+00  0.00000000E+00
  0.00000000E+00  0.00000000E+00  0.00000000E+00
  0.00000000E+00  0.00000000E+00  0.00000000E+00
  0.00000000E+00  0.00000000E+00  0.00000000E+00
  0.00000000E+00  0.00000000E+00  0.00000000E+00
  0.00000000E+00  0.00000000E+00  0.00000000E+00
  0.00000000E+00  0.00000000E+00  0.00000000E+00
  0.00000000E+00  0.00000000E+00  0.00000000E+00
  0.00000000E+00  0.00000000E+00  0.00000000E+00
