Sr2 Nb1 H7                              
   1.00000000000000     
     3.8539167913703323   -0.6940832158872553    1.2757082537210569
     0.5820780418813775    3.8018473968762931    0.2961881151891929
     2.5333247418864042    0.7596042367933505    9.1728414195910162
   H    Sr   H    Sr   H    Nb   H 
     4     1     1     1     1     1     1
Direct
  0.0754582840763790  0.4959990386460640  0.7507873633579342
  0.0651854659354761  0.0079399761164071  0.1464524452438528
  0.0021795874515325  0.7980631880289699  0.1911216139396440
  0.0984399599832510  0.6034620185648158  0.4958670822521160
  0.4726061147147327  0.1310077707303980  0.4335842767900017
  0.6984631060634583  0.0227682811432467  0.6790269338533910
  0.7738210078455791  0.9029332050264148 -0.0274402581651495
  0.6778489780196247  0.6020732032392614  0.4951280640222647
  0.6400606506322604  0.5157554442916772  0.6960175586991894
  0.5174178452777007  0.3241228742127581  0.1706999200067542
 
  0.00000000E+00  0.00000000E+00  0.00000000E+00
  0.00000000E+00  0.00000000E+00  0.00000000E+00
  0.00000000E+00  0.00000000E+00  0.00000000E+00
  0.00000000E+00  0.00000000E+00  0.00000000E+00
  0.00000000E+00  0.00000000E+00  0.00000000E+00
  0.00000000E+00  0.00000000E+00  0.00000000E+00
  0.00000000E+00  0.00000000E+00  0.00000000E+00
  0.00000000E+00  0.00000000E+00  0.00000000E+00
  0.00000000E+00  0.00000000E+00  0.00000000E+00
  0.00000000E+00  0.00000000E+00  0.00000000E+00
