Sr1 Nb1 H18                             
   1.00000000000000     
     4.6626737075298612    0.0872003776027605    0.0269391007829722
     1.3724306206808239    5.9163953509378393   -0.1705189218702653
     1.9866729893239692    2.0457756777490750    5.2669043272522389
   H    Nb   Sr   H 
    17     1     1     1
Direct
  0.7660400315776300  0.6813230642523310  0.7965968354201672
  0.3047963855322542  0.8412064189063464  0.7895396953086249
  0.5473446886479267  0.2215199399237003  0.0556077264805789
  0.5339109916635421  0.3230774495305648  0.9337111550200414
  0.6463537367415173  0.1310043133676776  0.6458508084646981
  0.7423824055506119  0.0108823410171608  0.7274263293835231
  0.5244297366497406  0.5729381647092919  0.5924189757074556
  0.0803856384361152  0.3163637924260708  0.8107572130484143
  0.1406503410952716  0.1847970548271416  0.8498828063739605
  0.0487047073888146  0.3150526633168414  0.4588554974802269
  0.1915565608735024  0.2172308755554162  0.4510306730142411
  0.9992055518779072  0.4438523596125964  0.1147506127713697
  0.0099829129545321  0.5549438163693381  0.9969973388289255
  0.0468578265332527  0.9997526665901602  0.3378147906507397
  0.9572457511935155  0.6241497398069149  0.5223653055367055
  0.9061849738467392  0.1045438654606003  0.2654992448475747
  0.3016269740351959  0.8762334574046563  0.4479787817565739
  0.6531333462997800  0.8616761136250897  0.5206339729599910
  0.4041681175909885  0.6121916081734531  0.1995936976930134
  0.7736413215111374  0.8172582951246327  0.2116065392531389
 
  0.00000000E+00  0.00000000E+00  0.00000000E+00
  0.00000000E+00  0.00000000E+00  0.00000000E+00
  0.00000000E+00  0.00000000E+00  0.00000000E+00
  0.00000000E+00  0.00000000E+00  0.00000000E+00
  0.00000000E+00  0.00000000E+00  0.00000000E+00
  0.00000000E+00  0.00000000E+00  0.00000000E+00
  0.00000000E+00  0.00000000E+00  0.00000000E+00
  0.00000000E+00  0.00000000E+00  0.00000000E+00
  0.00000000E+00  0.00000000E+00  0.00000000E+00
  0.00000000E+00  0.00000000E+00  0.00000000E+00
  0.00000000E+00  0.00000000E+00  0.00000000E+00
  0.00000000E+00  0.00000000E+00  0.00000000E+00
  0.00000000E+00  0.00000000E+00  0.00000000E+00
  0.00000000E+00  0.00000000E+00  0.00000000E+00
  0.00000000E+00  0.00000000E+00  0.00000000E+00
  0.00000000E+00  0.00000000E+00  0.00000000E+00
  0.00000000E+00  0.00000000E+00  0.00000000E+00
  0.00000000E+00  0.00000000E+00  0.00000000E+00
  0.00000000E+00  0.00000000E+00  0.00000000E+00
  0.00000000E+00  0.00000000E+00  0.00000000E+00
