Sr1 Nb1 H18                             
   1.00000000000000     
     4.6608722622166923    0.0863384033178370    0.0268671991362436
     1.3708547887104818    5.9135342700088609   -0.1691381156285401
     1.9854187002497747    2.0459018796640334    5.2712232230833997
   H    Nb   Sr   H 
    17     1     1     1
Direct
  0.7660708515916478  0.6815816042675911  0.7965055136751554
  0.3048051603037540  0.8412462792954747  0.7895323805863331
  0.5474412547179240  0.2211655892438078  0.0559750461435247
  0.5338376880025119  0.3232387224889155  0.9335037908797297
  0.6462451813077764  0.1313046853399864  0.6456091674832619
  0.7423203273414527  0.0109954585973751  0.7274229127179825
  0.5243977814370373  0.5728496330194013  0.5925447770582999
  0.0803488865778495  0.3163237294256955  0.8106728120873373
  0.1407672757865750  0.1851958467687158  0.8497386689304839
  0.0493203717035503  0.3146415344741216  0.4587780219454103
  0.1909892716827451  0.2176145399364695  0.4510822395960072
  0.9990173240828597  0.4437144012692580  0.1149437284766535
  0.0097531768977926  0.5549237304949134 -0.0029782795224968
  0.0470324213696008  0.9996666340200051  0.3378168676410626
  0.9574057488245141  0.6240090426017582  0.5224034921610673
  0.9063335344631496  0.1043445766381966  0.2653973967594900
  0.3017332222203163  0.8761638479821900  0.4480709893743531
  0.6530819422396597  0.8617500375969407  0.5206547428210183
  0.4039980962652738  0.6121290633086544  0.1995904867822040
  0.7737024831839837  0.8171390432305076  0.2116532444030867
 
  0.00000000E+00  0.00000000E+00  0.00000000E+00
  0.00000000E+00  0.00000000E+00  0.00000000E+00
  0.00000000E+00  0.00000000E+00  0.00000000E+00
  0.00000000E+00  0.00000000E+00  0.00000000E+00
  0.00000000E+00  0.00000000E+00  0.00000000E+00
  0.00000000E+00  0.00000000E+00  0.00000000E+00
  0.00000000E+00  0.00000000E+00  0.00000000E+00
  0.00000000E+00  0.00000000E+00  0.00000000E+00
  0.00000000E+00  0.00000000E+00  0.00000000E+00
  0.00000000E+00  0.00000000E+00  0.00000000E+00
  0.00000000E+00  0.00000000E+00  0.00000000E+00
  0.00000000E+00  0.00000000E+00  0.00000000E+00
  0.00000000E+00  0.00000000E+00  0.00000000E+00
  0.00000000E+00  0.00000000E+00  0.00000000E+00
  0.00000000E+00  0.00000000E+00  0.00000000E+00
  0.00000000E+00  0.00000000E+00  0.00000000E+00
  0.00000000E+00  0.00000000E+00  0.00000000E+00
  0.00000000E+00  0.00000000E+00  0.00000000E+00
  0.00000000E+00  0.00000000E+00  0.00000000E+00
  0.00000000E+00  0.00000000E+00  0.00000000E+00
