Sr1 Nb2 H9
1.0
3.658740 0.400647 0.025916
-0.382275 3.462140 -0.109905
-1.705842 -1.706908 7.359758
Sr Nb H
1 2 9
direct
0.284251 0.752706 0.491488 Sr
0.607612 0.074709 0.135735 Nb
0.973524 0.443099 0.873232 Nb
0.735931 0.201158 0.391278 H
0.158941 0.126646 0.236601 H
0.863718 0.575531 0.134801 H
0.364930 0.579268 0.145402 H
0.912845 0.883438 0.753678 H
0.485593 0.708098 0.900535 H
0.630947 0.337945 0.661228 H
0.110934 0.336857 0.661522 H
0.482504 0.204363 0.899805 H
