H13                                     
   1.00000000000000     
     2.8234990020984436   -0.0819584813111760   -0.0443439272646150
    -0.1251654386717146    4.7227699874143108   -0.0499775967240557
     0.2906246196993458    0.7990923788807184    5.7501449536390865
   H 
    13
Direct
  0.3527804356738467  0.5124387632222152  0.6888777742744958
  0.2820028181067183  0.5079859389394999  0.5673042502519112
  0.0424906989531790  0.7920392403851680  0.2984924766845764
  0.2512891717958724  0.8780386545794363  0.3385601140264904
  0.8210636671424810  0.0552680046638331  0.6059733399104398
  0.5635711180809365  0.3078575552996125  0.2474480563556446
  0.2395887320109921  0.3274173963899421  0.2561865073929406
  0.8986388267812746  0.3148124540224955  0.2449166126964143
  0.3495453538467871  0.1199083839950925  0.8765768921850099
  0.1589390326140581  0.1547848482136989  0.9540864613360257
  0.7259298459225272  0.7081815986751897 -0.0180785670960796
  0.4708526872109736  0.6995956509174402  0.0188478528862836
  0.7333286118603437  0.9057195106963750  0.6497102290958514
 
  0.00000000E+00  0.00000000E+00  0.00000000E+00
  0.00000000E+00  0.00000000E+00  0.00000000E+00
  0.00000000E+00  0.00000000E+00  0.00000000E+00
  0.00000000E+00  0.00000000E+00  0.00000000E+00
  0.00000000E+00  0.00000000E+00  0.00000000E+00
  0.00000000E+00  0.00000000E+00  0.00000000E+00
  0.00000000E+00  0.00000000E+00  0.00000000E+00
  0.00000000E+00  0.00000000E+00  0.00000000E+00
  0.00000000E+00  0.00000000E+00  0.00000000E+00
  0.00000000E+00  0.00000000E+00  0.00000000E+00
  0.00000000E+00  0.00000000E+00  0.00000000E+00
  0.00000000E+00  0.00000000E+00  0.00000000E+00
  0.00000000E+00  0.00000000E+00  0.00000000E+00
