Sr1 Nb3 H16                             
   1.00000000000000     
     3.3969009690770089    0.0432656386728702    0.3345191365386777
     0.2304349523442866    6.6290516796924575   -0.5880852964415798
     0.9677917496604919    1.6553919032057927    7.6563564064126268
   Sr   Nb   H 
     1     3    16
Direct
  0.4507534107715170  0.3045685070140246  0.9762651283168490
  0.1399347167909601  0.0693826734587140  0.6171457191550995
  0.7542333705743932  0.3662028038244639  0.3698293039320298
  0.1217342626110027  0.6102993547058886  0.5791705327160046
  0.8962891461411189  0.3328292853303106  0.6206104819690498
  0.0681116699900629  0.8057004788593917  0.7444155931239659
  0.0239570751998931  0.0972670305126609  0.8524775471604148
  0.3637087687192475  0.7224956394120247  0.9483985789404393
  0.3780885407239628  0.6929749554933330  0.0407776432841377
  0.5753354591844895  0.0255615529854875  0.7357933843598624
  0.7080247479418728  0.0910979032748419  0.4692432180516575
  0.8608748424322942  0.1891155233263062  0.2020570167091706
  0.7332934004510059  0.8697637304017779  0.1032910866147805
  0.6751584497119618  0.9112712259800937  0.1893252805796325
  0.2525791785196672  0.5380945195340029  0.3394352753954965
  0.2111449479541713  0.8719297654054056  0.4526292307704661
  0.6853373151906689  0.6370750675500151  0.4490088586241561
  0.8370711173968938  0.4878525345070132  0.1395055541258468
  0.2687196581171925  0.2173378250608359  0.3592379234630843
  0.5529519215776234  0.5762676233633943  0.7212046427078618
 
  0.00000000E+00  0.00000000E+00  0.00000000E+00
  0.00000000E+00  0.00000000E+00  0.00000000E+00
  0.00000000E+00  0.00000000E+00  0.00000000E+00
  0.00000000E+00  0.00000000E+00  0.00000000E+00
  0.00000000E+00  0.00000000E+00  0.00000000E+00
  0.00000000E+00  0.00000000E+00  0.00000000E+00
  0.00000000E+00  0.00000000E+00  0.00000000E+00
  0.00000000E+00  0.00000000E+00  0.00000000E+00
  0.00000000E+00  0.00000000E+00  0.00000000E+00
  0.00000000E+00  0.00000000E+00  0.00000000E+00
  0.00000000E+00  0.00000000E+00  0.00000000E+00
  0.00000000E+00  0.00000000E+00  0.00000000E+00
  0.00000000E+00  0.00000000E+00  0.00000000E+00
  0.00000000E+00  0.00000000E+00  0.00000000E+00
  0.00000000E+00  0.00000000E+00  0.00000000E+00
  0.00000000E+00  0.00000000E+00  0.00000000E+00
  0.00000000E+00  0.00000000E+00  0.00000000E+00
  0.00000000E+00  0.00000000E+00  0.00000000E+00
  0.00000000E+00  0.00000000E+00  0.00000000E+00
  0.00000000E+00  0.00000000E+00  0.00000000E+00
