Sr1 Nb2 H13
1.0
3.294486 -0.156515 0.168285
-0.342596 6.220656 0.818177
-0.271436 -0.806536 5.813864
Sr Nb H
1 2 13
direct
0.332012 0.975486 0.292725 Sr
0.762913 0.690479 0.769774 Nb
0.882101 0.227525 0.796987 Nb
0.392440 0.492567 0.327356 H
0.382575 0.217337 0.624713 H
0.373111 0.185702 0.960019 H
0.889278 0.451918 0.595662 H
0.879257 0.215356 0.476083 H
0.778753 0.705501 0.463870 H
0.816404 0.958205 0.627865 H
0.794989 0.462043 0.982346 H
0.828892 0.912227 0.986480 H
0.249257 0.462767 0.231241 H
0.282969 0.705021 0.955186 H
0.283073 0.731893 0.613045 H
0.873535 0.205265 0.121841 H
