H17                                     
   1.00000000000000     
     2.9818121277674337    0.0347055985095314   -0.0894986233154852
    -0.2281935982408430    5.0112899147595078   -0.2731367939615938
    -1.0884584420107852   -2.2225027640541182    9.5382031084338958
   H 
    17
Direct
  0.8995068424513767  0.1680527465683236  0.6851195388551691
  0.0558152798786231  0.1367721576918384  0.6304649387217411
  0.4055945170069676  0.8775525958161328  0.4357167613810192
  0.1921889599033410  0.8426075095249415  0.3821074053253986
  0.5188395847194516  0.4204375066463399  0.8787370791750554
  0.7515420767805620  0.4665117546117212  0.9199398099858825
  0.8873428149371426  0.4471292356382000  0.1620793203498228
  0.2190802959903285  0.4475244401225061  0.1624639894099050
  0.5556317696473183  0.4472453358079784  0.1622483998995679
  0.0137555866613956  0.9169200675207698  0.8883359070232997
  0.2323722734708936  0.9826679068627078  0.9344541233032411
  0.6019164732353336  0.9090978730814048  0.1454390862792228
  0.8322724730274391  0.9825792889845147  0.1746261201834115
  0.6585940780649419  0.3214117234428198  0.4008599121165733
  0.8794774247049585  0.4045631919720452  0.4335580860226286
  0.5448129512284187  0.6331047407967348  0.6361051253126598
  0.3887425982915032  0.6889659249110098  0.6886973966553893
 
  0.00000000E+00  0.00000000E+00  0.00000000E+00
  0.00000000E+00  0.00000000E+00  0.00000000E+00
  0.00000000E+00  0.00000000E+00  0.00000000E+00
  0.00000000E+00  0.00000000E+00  0.00000000E+00
  0.00000000E+00  0.00000000E+00  0.00000000E+00
  0.00000000E+00  0.00000000E+00  0.00000000E+00
  0.00000000E+00  0.00000000E+00  0.00000000E+00
  0.00000000E+00  0.00000000E+00  0.00000000E+00
  0.00000000E+00  0.00000000E+00  0.00000000E+00
  0.00000000E+00  0.00000000E+00  0.00000000E+00
  0.00000000E+00  0.00000000E+00  0.00000000E+00
  0.00000000E+00  0.00000000E+00  0.00000000E+00
  0.00000000E+00  0.00000000E+00  0.00000000E+00
  0.00000000E+00  0.00000000E+00  0.00000000E+00
  0.00000000E+00  0.00000000E+00  0.00000000E+00
  0.00000000E+00  0.00000000E+00  0.00000000E+00
  0.00000000E+00  0.00000000E+00  0.00000000E+00
