Sr1 Nb1 H6                              
   1.00000000000000     
     3.3513683535358925    0.1990095154014100    0.5038179459410733
    -0.5953231730643260    6.3097229836971609    1.4224060337056741
    -0.2202288399575712   -2.4023942614162426    2.5389996683748333
   H    Sr   H    Nb   H 
     1     1     4     1     1
Direct
  0.3402816487621942  0.6608683808131117  0.0181839402450708
  0.8314581442185007  0.8266357375217384  0.6900111767017135
  0.3241498956585824  0.5026386990844204  0.3732859433847099
  0.8431500605664178  0.5120961805975679  0.8576751183555030
  0.8412596843841560  0.1481100165566785  0.4861945016445500
  0.3398449377350873 -0.0100255659589352  0.3986965689013531
  0.3008931291581156  0.3266699245748398  0.6657224736597616
  0.3270274995169347  0.1591226268105748  0.0492662771073200
 
  0.00000000E+00  0.00000000E+00  0.00000000E+00
  0.00000000E+00  0.00000000E+00  0.00000000E+00
  0.00000000E+00  0.00000000E+00  0.00000000E+00
  0.00000000E+00  0.00000000E+00  0.00000000E+00
  0.00000000E+00  0.00000000E+00  0.00000000E+00
  0.00000000E+00  0.00000000E+00  0.00000000E+00
  0.00000000E+00  0.00000000E+00  0.00000000E+00
  0.00000000E+00  0.00000000E+00  0.00000000E+00
