Sr2 Nb1 H10                             
   1.00000000000000     
     3.8445928677783416   -0.0394807502772711    0.0246273969712248
     0.0751395109618866    5.6414677914376510   -0.0166991222961605
     1.8634381983500354    0.1262514008560605    6.4813181939365956
   H    Nb   H    Sr
     3     1     7     2
Direct
  0.8902546658935583  0.5078758384321028  0.6884148687720664
  0.0880481062420784  0.5063752122104133  0.6909605623013455
  0.4082401901360835  0.2799275053805988  0.8491087129604612
  0.6714302762194653  0.9192481634899091  0.3218941225818664
  0.3783467231418979  0.1574014569632885  0.4364211437039319
  0.8362874455990268  0.1621441599962097  0.4388110494650078
  0.1808465116190325  0.8434573896414308  0.3058842417870323
  0.6462335041819823  0.5945464571095429  0.3771040778631601
  0.5331398200035214  0.8461394991855147  0.6043840097150104
  0.7727650814915462  0.1692171330301529  0.1226588445666111
  0.7990770419391680  0.7500365772294502  0.0654562956983957
  0.2398151491834093  0.4342172968755245  0.1871511040656664
  0.9505914843492406  0.0451403104558770  0.7668529665194543
 
  0.00000000E+00  0.00000000E+00  0.00000000E+00
  0.00000000E+00  0.00000000E+00  0.00000000E+00
  0.00000000E+00  0.00000000E+00  0.00000000E+00
  0.00000000E+00  0.00000000E+00  0.00000000E+00
  0.00000000E+00  0.00000000E+00  0.00000000E+00
  0.00000000E+00  0.00000000E+00  0.00000000E+00
  0.00000000E+00  0.00000000E+00  0.00000000E+00
  0.00000000E+00  0.00000000E+00  0.00000000E+00
  0.00000000E+00  0.00000000E+00  0.00000000E+00
  0.00000000E+00  0.00000000E+00  0.00000000E+00
  0.00000000E+00  0.00000000E+00  0.00000000E+00
  0.00000000E+00  0.00000000E+00  0.00000000E+00
  0.00000000E+00  0.00000000E+00  0.00000000E+00
