Sr1 Nb2 H8                              
   1.00000000000000     
     4.5640355140662097   -1.1309666611793590   -0.0397709090189784
     0.8252517362279811    3.3241128149284394   -0.4375363429138733
     1.3038909195699719    0.7284135715534760    6.3168202731517322
   H    Nb   H    Nb   Sr   H 
     6     1     1     1     1     1
Direct
  0.4934948286190866  0.8638146812000445  0.3432888539652031
  0.7107081760836420  0.3757792021558398  0.1348534966863125
 -0.0381202331191357 -0.0716164150034652  0.0659373075067162
  0.0223769186451226  0.8643579513102940  0.5000884907216766
  0.1076960188416898  0.3750622058761943  0.6558041325825035
  0.9921749339824864  0.8725842490617600  0.3855291500700644
  0.0642585203241460  0.4529381113809345  0.9408809042037144
  0.3613873740203720  0.8265215474284864  0.8007765656719099
  0.5385897214932129  0.8703022370247692  0.0529367694063806
  0.6366873568974998  0.3482815749956583  0.5468397656378534
  0.3089133842118546  0.3806046545694947  0.1503705635476577
 
  0.00000000E+00  0.00000000E+00  0.00000000E+00
  0.00000000E+00  0.00000000E+00  0.00000000E+00
  0.00000000E+00  0.00000000E+00  0.00000000E+00
  0.00000000E+00  0.00000000E+00  0.00000000E+00
  0.00000000E+00  0.00000000E+00  0.00000000E+00
  0.00000000E+00  0.00000000E+00  0.00000000E+00
  0.00000000E+00  0.00000000E+00  0.00000000E+00
  0.00000000E+00  0.00000000E+00  0.00000000E+00
  0.00000000E+00  0.00000000E+00  0.00000000E+00
  0.00000000E+00  0.00000000E+00  0.00000000E+00
  0.00000000E+00  0.00000000E+00  0.00000000E+00
