Sr1 Nb2 H7                              
   1.00000000000000     
     5.4882760344679049    0.8442342085340555    0.7356931475605557
     1.2881440295850526    6.0405014573423834    0.6518975608754527
    -1.6469111660043620   -1.8182945361196374    2.8058485464112026
   H    Sr   H    Nb   H    Nb   H 
     1     1     2     1     2     1     2
Direct
  0.0300343498999256  0.9248248719041983  0.6497726708884449
  0.0702605811338988  0.5811409682301362  0.7924656690446749
  0.0601905305917564  0.2877920746565227  0.0395855021898213
  0.3222927222269093  0.6625939152991817  0.5118667607357641
  0.7259780587745280  0.1744368141265722  0.7346518452009920
  0.6570561893724658  0.6553262128907934  0.9007090860365914
  0.3530898972460152  0.1314923642496771  0.5113007246204916
  0.4286151433019773  0.9679125786694712  0.8931971334973430
  0.6247335990750736  0.2606241382579006  0.2426443463834899
  0.6575809283774402  0.8526040617155588  0.5406992614023794
 
  0.00000000E+00  0.00000000E+00  0.00000000E+00
  0.00000000E+00  0.00000000E+00  0.00000000E+00
  0.00000000E+00  0.00000000E+00  0.00000000E+00
  0.00000000E+00  0.00000000E+00  0.00000000E+00
  0.00000000E+00  0.00000000E+00  0.00000000E+00
  0.00000000E+00  0.00000000E+00  0.00000000E+00
  0.00000000E+00  0.00000000E+00  0.00000000E+00
  0.00000000E+00  0.00000000E+00  0.00000000E+00
  0.00000000E+00  0.00000000E+00  0.00000000E+00
  0.00000000E+00  0.00000000E+00  0.00000000E+00
