Sr2 Nb1 H21                             
   1.00000000000000     
     5.2283991276263864    0.0513290982336040    0.3466929655921298
     1.4991599722708855    6.9626069730678513    0.6190834997341876
     1.9597073806248324    1.4510905650307933    6.6239652922620218
   Sr   Nb   H 
     2     1    21
Direct
  0.7653921245047295  0.4184106036052643  0.7693867315996585
  0.0050498951619730  0.7172231406871001  0.0782589726129479
  0.5953251650633192  0.9409277172940647  0.7028083476164654
  0.8554347169770485  0.1407797668836751  0.4895423134613337
  0.9211350137910678  0.0379501512775247  0.4654268810144375
  0.8219650637968892  0.1199925382799923  0.1422227727836888
  0.9507678395075045  0.1724414540318167  0.0915050915025133
  0.9087829139908767  0.7691432847233572  0.7217189781272227
  0.3933448645578731  0.1043622003707181  0.1606617404500701
  0.3047366056963103  0.2010348584904956  0.1722980993096547
  0.7536591686784040  0.0201995398964965  0.8548387401536723
  0.4606182445543908  0.4214696481964301  0.2739195304799657
  0.3457988616427635  0.7763754846578174  0.3009228502491604
  0.2575963575117318  0.7121397803255195  0.3994628982930923
  0.3464156109089999  0.1029225759636683  0.5277081128432348
  0.3063253583913580  0.9910196826275735  0.5634620257932746
  0.5007660511167651  0.2087883983224686  0.6649926695868750
  0.2667582642581254 -0.0033098336888435  0.8829383698257380
  0.3944093972877911  0.7433595557748914  0.7501056989104182
  0.6138859987123303  0.4221912782950770  0.2217092261968207
  0.0136334897203149  0.4399873780525008  0.4131913810209332
  0.5549588150005718  0.7671806504363424  0.9596536422609002
  0.1145868909649525  0.4433760034687659  0.9366232170503509
  0.7192412882039192  0.8205501420272876  0.4853077088575729
 
  0.00000000E+00  0.00000000E+00  0.00000000E+00
  0.00000000E+00  0.00000000E+00  0.00000000E+00
  0.00000000E+00  0.00000000E+00  0.00000000E+00
  0.00000000E+00  0.00000000E+00  0.00000000E+00
  0.00000000E+00  0.00000000E+00  0.00000000E+00
  0.00000000E+00  0.00000000E+00  0.00000000E+00
  0.00000000E+00  0.00000000E+00  0.00000000E+00
  0.00000000E+00  0.00000000E+00  0.00000000E+00
  0.00000000E+00  0.00000000E+00  0.00000000E+00
  0.00000000E+00  0.00000000E+00  0.00000000E+00
  0.00000000E+00  0.00000000E+00  0.00000000E+00
  0.00000000E+00  0.00000000E+00  0.00000000E+00
  0.00000000E+00  0.00000000E+00  0.00000000E+00
  0.00000000E+00  0.00000000E+00  0.00000000E+00
  0.00000000E+00  0.00000000E+00  0.00000000E+00
  0.00000000E+00  0.00000000E+00  0.00000000E+00
  0.00000000E+00  0.00000000E+00  0.00000000E+00
  0.00000000E+00  0.00000000E+00  0.00000000E+00
  0.00000000E+00  0.00000000E+00  0.00000000E+00
  0.00000000E+00  0.00000000E+00  0.00000000E+00
  0.00000000E+00  0.00000000E+00  0.00000000E+00
  0.00000000E+00  0.00000000E+00  0.00000000E+00
  0.00000000E+00  0.00000000E+00  0.00000000E+00
  0.00000000E+00  0.00000000E+00  0.00000000E+00
