pymatgen with grid density = 1961 / number of atoms
0
Gamma
5 3 3
