Sr2 Nb1 H8                              
   1.00000000000000     
     4.2241886889796820    0.0135247672833339    0.0527944576185196
     0.0298421356651153    5.4260940702690785    0.0424031279568474
    -1.7894270836853556    0.0471666530069251    5.9715203976820552
   H    Nb   H    Sr
     2     1     6     2
Direct
  0.0873672717854908  0.9167921879289909  0.7138905072187607
  0.2511384522438767  0.9155603152786349  0.8060665707434066
  0.7051825239200774  0.4200244902384939  0.1908777265677840
  0.5353182752141192  0.4811459982946601  0.8895083173718481
  0.4064855181296014  0.1885705449665264  0.0583313680314268
  0.8727822686146562  0.6818497447391427  0.0603426321861553
  0.8789821971388414  0.1769992472503984  0.0549166777765198
  0.7978893363104221  0.6691738208811669  0.4235396420609068
  0.8118076317768946  0.1631664834916643  0.4217645259142340
  0.9930880633063927  0.4120934666567929  0.7601977482936590
  0.2594244615596199  0.9242337002735284  0.3163192838352973
 
  0.00000000E+00  0.00000000E+00  0.00000000E+00
  0.00000000E+00  0.00000000E+00  0.00000000E+00
  0.00000000E+00  0.00000000E+00  0.00000000E+00
  0.00000000E+00  0.00000000E+00  0.00000000E+00
  0.00000000E+00  0.00000000E+00  0.00000000E+00
  0.00000000E+00  0.00000000E+00  0.00000000E+00
  0.00000000E+00  0.00000000E+00  0.00000000E+00
  0.00000000E+00  0.00000000E+00  0.00000000E+00
  0.00000000E+00  0.00000000E+00  0.00000000E+00
  0.00000000E+00  0.00000000E+00  0.00000000E+00
  0.00000000E+00  0.00000000E+00  0.00000000E+00
