Sr1 Nb2 H9                              
   1.00000000000000     
     3.3021806026249254   -0.1312263747232083   -0.3405417068813570
    -0.0268469127695780    4.7898343984981349   -0.8837455763086296
    -0.4990746739022811   -0.1865182677924181    6.8028370096527899
   H    Nb   H    Sr
     3     2     6     1
Direct
  0.5176786707485669  0.1347309119021273  0.7063447979221872
  0.5222717353844258  0.5321373408518352  0.7538454566095999
  0.6544571109639890  0.9397638006849649  0.0759210881369780
  0.7058817993938878  0.7182250967260104  0.2677287277711599
  0.4172360510711257  0.3164099711640627  0.4947317802091752
  0.1581841006656298  0.6272497056748070  0.0962724388939059
  0.9033741370526142  0.3706933806639082  0.3425084827412895
  0.2443027465125190  0.9470553214598053  0.3200147928018507
  0.9900472462325706  0.3215296847786215  0.6401998080732060
  0.4126620715056178  0.3667113253340031  0.2151080898070233
  0.5292920237640072  0.7051854542536041  0.5161370846106585
  0.0598253067050510  0.8987900065062543  0.8272924524229633
 
  0.00000000E+00  0.00000000E+00  0.00000000E+00
  0.00000000E+00  0.00000000E+00  0.00000000E+00
  0.00000000E+00  0.00000000E+00  0.00000000E+00
  0.00000000E+00  0.00000000E+00  0.00000000E+00
  0.00000000E+00  0.00000000E+00  0.00000000E+00
  0.00000000E+00  0.00000000E+00  0.00000000E+00
  0.00000000E+00  0.00000000E+00  0.00000000E+00
  0.00000000E+00  0.00000000E+00  0.00000000E+00
  0.00000000E+00  0.00000000E+00  0.00000000E+00
  0.00000000E+00  0.00000000E+00  0.00000000E+00
  0.00000000E+00  0.00000000E+00  0.00000000E+00
  0.00000000E+00  0.00000000E+00  0.00000000E+00
