Sr1 Nb3 H16                             
   1.00000000000000     
     3.2088137878212675   -0.4176234688323166   -0.0698937529535738
    -0.7618704077909182    6.3769260248501176    0.3531295376316926
    -1.4970187042869159   -0.3285959190124678    6.8991249072389884
   H    Nb   H    Nb   H    Nb   H    Sr
     3     1     3     1     1     1     9     1
Direct
  0.5558775086442378  0.3224278603133442  0.0294483999022057
  0.0340937362132103  0.4272218064489204  0.8942662824040045
  0.6555422992579503  0.2772423200754287  0.2847724483888813
  0.8998797643880796  0.8446886428075875  0.2041682369101107
  0.0356938171828883  0.8161481493981558  0.5066826705848541
  0.9544607298358643  0.1105779753645976  0.0499012834560697
  0.7713384927074096  0.8517002199587581  0.9272762991715159
  0.1426478655851091  0.7202522032821520  0.8052931912788525
  0.4078484873170194  0.9701450945985998  0.0989806410850400
  0.1564212161939766  0.3836933004196363  0.1778825900684716
  0.3064850031385961  0.4157564804402075  0.4432754108931047
  0.9484972016647155  0.5452118433462935  0.6018792612664499
  0.1083177509876950  0.1150032168875782  0.3354466068744082
  0.2592234751055891  0.6804173706447153  0.0971320745041533
  0.7742972479605217  0.5520215704895017  0.2781900050288291
  0.4767787672681517  0.8576782784785639  0.3624066647713171
  0.6076600825247712  0.7954691964099162  0.6650806486313378
  0.5516970221714242  0.5520128781831550  0.7823552455276760
  0.2812840286795381  0.0176206280402121  0.7926529534630380
  0.7652965031732416  0.1763849644126838  0.6051640857897111
 
  0.00000000E+00  0.00000000E+00  0.00000000E+00
  0.00000000E+00  0.00000000E+00  0.00000000E+00
  0.00000000E+00  0.00000000E+00  0.00000000E+00
  0.00000000E+00  0.00000000E+00  0.00000000E+00
  0.00000000E+00  0.00000000E+00  0.00000000E+00
  0.00000000E+00  0.00000000E+00  0.00000000E+00
  0.00000000E+00  0.00000000E+00  0.00000000E+00
  0.00000000E+00  0.00000000E+00  0.00000000E+00
  0.00000000E+00  0.00000000E+00  0.00000000E+00
  0.00000000E+00  0.00000000E+00  0.00000000E+00
  0.00000000E+00  0.00000000E+00  0.00000000E+00
  0.00000000E+00  0.00000000E+00  0.00000000E+00
  0.00000000E+00  0.00000000E+00  0.00000000E+00
  0.00000000E+00  0.00000000E+00  0.00000000E+00
  0.00000000E+00  0.00000000E+00  0.00000000E+00
  0.00000000E+00  0.00000000E+00  0.00000000E+00
  0.00000000E+00  0.00000000E+00  0.00000000E+00
  0.00000000E+00  0.00000000E+00  0.00000000E+00
  0.00000000E+00  0.00000000E+00  0.00000000E+00
  0.00000000E+00  0.00000000E+00  0.00000000E+00
