Sr1 Nb3 H18                             
   1.00000000000000     
     3.3802656031454785    0.1398513054987253   -0.1981642961877394
     1.0844963525030651    7.6946680682121888   -0.4270639442560662
     0.6039811335078148    2.5784869019326706    5.9527833653427269
   H    Sr   H    Nb   H    Nb   H    Nb   H 
     2     1     3     1     7     1     1     1     5
Direct
  0.9695208511177923  0.1072042247565397  0.7585873913636135
  0.0849353288967584  0.8128747056273742  0.9009029841452082
  0.3333736220411799  0.2964040171561858  0.8319539652048202
  0.2029912662424518  0.5391242283223572  0.0286863778502725
  0.9981136865059320  0.2341918399679455  0.4451442072032680
  0.7932617929951018  0.4382317632223772  0.5788061903630465
  0.6780728374781277  0.6682716952314569  0.9460590105335759
  0.9645460500897015  0.6656880345145973  0.6908005282260615
  0.5386277921496192  0.9299550938037833  0.7566806607925578
  0.5023179388291940  0.1412576404821337  0.5127145148841781
  0.2429230579716978  0.5565334212479149  0.4425265274859528
  0.8705305325426663  0.0897147064015694  0.1168125440142793
  0.8591283799802735  0.0491528604552162  0.0242875742751084
  0.5825220850652109  0.9431119811588228  0.4232208717333391
  0.7018444127333133  0.6825083756873255  0.4305466394883843
  0.1280492475685991  0.8302005591333589  0.3649694825384829
  0.0883915326853002  0.9914602368460863  0.5640021338936981
  0.7640046862513855  0.4163471932054661  0.0064981975516637
  0.4581540638084625  0.6323588837956157  0.7048444232500158
  0.1012768063880362  0.1364590269678255  0.2806038967604803
  0.7459804596666950  0.5306822920981394  0.2516892463035884
  0.5819655689925057  0.8227782199179000  0.1208506321384244
 
  0.00000000E+00  0.00000000E+00  0.00000000E+00
  0.00000000E+00  0.00000000E+00  0.00000000E+00
  0.00000000E+00  0.00000000E+00  0.00000000E+00
  0.00000000E+00  0.00000000E+00  0.00000000E+00
  0.00000000E+00  0.00000000E+00  0.00000000E+00
  0.00000000E+00  0.00000000E+00  0.00000000E+00
  0.00000000E+00  0.00000000E+00  0.00000000E+00
  0.00000000E+00  0.00000000E+00  0.00000000E+00
  0.00000000E+00  0.00000000E+00  0.00000000E+00
  0.00000000E+00  0.00000000E+00  0.00000000E+00
  0.00000000E+00  0.00000000E+00  0.00000000E+00
  0.00000000E+00  0.00000000E+00  0.00000000E+00
  0.00000000E+00  0.00000000E+00  0.00000000E+00
  0.00000000E+00  0.00000000E+00  0.00000000E+00
  0.00000000E+00  0.00000000E+00  0.00000000E+00
  0.00000000E+00  0.00000000E+00  0.00000000E+00
  0.00000000E+00  0.00000000E+00  0.00000000E+00
  0.00000000E+00  0.00000000E+00  0.00000000E+00
  0.00000000E+00  0.00000000E+00  0.00000000E+00
  0.00000000E+00  0.00000000E+00  0.00000000E+00
  0.00000000E+00  0.00000000E+00  0.00000000E+00
  0.00000000E+00  0.00000000E+00  0.00000000E+00
