Sr2 Nb1 H7
1.0
3.190276 0.055758 0.322101
0.001052 6.396795 -0.379705
0.673193 -0.962891 6.262485
Sr Nb H
2 1 7
direct
0.529432 0.657857 0.824096 Sr
0.710865 0.162429 0.396058 Sr
0.009310 0.140769 0.875034 Nb
0.448785 0.753603 0.365638 H
0.533086 0.295144 0.807903 H
0.412351 0.183567 0.080777 H
0.657202 0.709254 0.280010 H
0.950154 0.913421 0.024509 H
0.135074 0.450065 0.558395 H
0.572016 -0.014192 0.723423 H
