pymatgen with grid density = 1983 / number of atoms
0
Gamma
6 7 3
