H16                                     
   1.00000000000000     
     2.8499465496903102    0.1216386114058930    0.1514496296913656
     0.1611543967883838    4.2486724180111981   -0.1668233126392658
    -0.0170212294171582   -0.6529281357227568    7.6023778709666434
   H 
    16
Direct
  0.9215081888856564  0.5126657980058447  0.6980425345179426
  0.6585222588364091  0.5261180498443224  0.7056565273316175
  0.4577154972184794  0.8840352198148699  0.5191943293562128
  0.7885645890419912  0.8975557990304249  0.5158929814885868
  0.1245702953116541  0.8899798423106092  0.5150428953828116
  0.3739262328447586  0.1127779234894798  0.1626610458920508
  0.1615586418213035  0.1759658995752483  0.1202211103460927
  0.1140293680191353  0.0856132674642537  0.8375343942504401
  0.4469045042907954  0.0835759654060789  0.8365200859847864
  0.7789534624050837  0.0797523095093925  0.8465936543197458
  0.3617485705286099  0.5985194143624386  0.9835600498394825
  0.1244286009215513  0.6446029393755854  0.9525002425384547
  0.2336266757151081  0.3510020045168182  0.4263306562635824
  0.4829993520318488  0.3567421373982538  0.4516231000215504
  0.6179786143133349  0.6364016712318047  0.2478357737627447
  0.8486441478142688  0.6865007586645510  0.2160086187038988
 
  0.00000000E+00  0.00000000E+00  0.00000000E+00
  0.00000000E+00  0.00000000E+00  0.00000000E+00
  0.00000000E+00  0.00000000E+00  0.00000000E+00
  0.00000000E+00  0.00000000E+00  0.00000000E+00
  0.00000000E+00  0.00000000E+00  0.00000000E+00
  0.00000000E+00  0.00000000E+00  0.00000000E+00
  0.00000000E+00  0.00000000E+00  0.00000000E+00
  0.00000000E+00  0.00000000E+00  0.00000000E+00
  0.00000000E+00  0.00000000E+00  0.00000000E+00
  0.00000000E+00  0.00000000E+00  0.00000000E+00
  0.00000000E+00  0.00000000E+00  0.00000000E+00
  0.00000000E+00  0.00000000E+00  0.00000000E+00
  0.00000000E+00  0.00000000E+00  0.00000000E+00
  0.00000000E+00  0.00000000E+00  0.00000000E+00
  0.00000000E+00  0.00000000E+00  0.00000000E+00
  0.00000000E+00  0.00000000E+00  0.00000000E+00
