Sr2 Nb3 H14
1.0
4.929919 -0.000000 -0.000000
0.003892 5.931254 -0.000000
0.830777 0.130019 5.933050
Sr H Nb H Sr H Nb H
1 2 1 3 1 8 2 1
direct
0.477438 0.496125 0.710074 Sr
0.631576 0.681625 0.597064 H
0.447748 0.824682 0.446233 H
0.036650 0.976517 0.925264 Nb
0.266462 0.068244 0.717930 H
0.029628 0.760241 0.749793 H
0.449333 0.179915 0.471661 H
0.477438 0.496125 0.210074 Sr
0.631721 0.682621 0.104777 H
0.447748 0.824682 0.946233 H
0.449333 0.179915 0.971661 H
0.620515 0.075653 0.835091 H
0.029628 0.760241 0.249793 H
0.931562 0.817907 0.212512 H
0.266462 0.068244 0.217930 H
0.958510 0.143606 0.196938 H
0.036650 0.976517 0.425264 Nb
0.898840 0.484179 0.217493 Nb
0.960625 0.412947 0.687792 H
