Sr1 Nb2 H9                              
   1.00000000000000     
     3.3751336210419236   -0.0343102605846819    0.2693685858320915
     0.4404504509714264    4.9410577333991776   -0.9187479249107898
     0.7325601356289735   -0.8272667030750306    6.7729660940069776
   H    Sr   H    Nb   H    Nb
     1     1     7     1     1     1
Direct
  0.8782233980872097  0.6258683458350853  0.2162147771823500
  0.5001578144400555  0.3215629447877299  0.0515306570593475
  0.0457114134299702  0.9790728120851437  0.1363573622355116
  0.9175070926487049  0.6028195809591159  0.7269742232599774
  0.1312118789745644  0.9241468220288971  0.0120664908813349
  0.5946266271662984  0.8608751254467031  0.8162128882572602
  0.0849930769992421  0.3623331630187380  0.8415809017106518
  0.6762876716440803  0.1444947108565932  0.6577855716111130
  0.2689236624218219  0.8586984396840613  0.4002700343659882
  0.7533363995961962  0.7332870228994108  0.5243997352905606
  0.7572197257456831  0.3119899828277789  0.4044796232565289
  0.2021612388461555  0.2525440495707301  0.5609157348893604
 
  0.00000000E+00  0.00000000E+00  0.00000000E+00
  0.00000000E+00  0.00000000E+00  0.00000000E+00
  0.00000000E+00  0.00000000E+00  0.00000000E+00
  0.00000000E+00  0.00000000E+00  0.00000000E+00
  0.00000000E+00  0.00000000E+00  0.00000000E+00
  0.00000000E+00  0.00000000E+00  0.00000000E+00
  0.00000000E+00  0.00000000E+00  0.00000000E+00
  0.00000000E+00  0.00000000E+00  0.00000000E+00
  0.00000000E+00  0.00000000E+00  0.00000000E+00
  0.00000000E+00  0.00000000E+00  0.00000000E+00
  0.00000000E+00  0.00000000E+00  0.00000000E+00
  0.00000000E+00  0.00000000E+00  0.00000000E+00
