Sr1 Nb1 H22
1.0
5.034175 0.605670 0.222448
-0.614127 4.966920 0.418033
-0.116627 -1.121650 6.610007
Sr Nb H
1 1 22
direct
0.480464 0.410966 0.401148 Sr
0.983510 0.936138 0.475434 Nb
0.063609 0.787207 0.738372 H
0.900959 0.779201 0.735550 H
0.983644 0.575341 0.418178 H
0.988048 0.203310 0.307131 H
0.991397 0.959034 0.198622 H
-0.003569 0.784672 0.209798 H
0.783095 0.194374 0.610524 H
0.308917 0.036202 0.038514 H
0.567736 0.815536 0.633245 H
0.659476 0.926456 0.360893 H
0.046822 0.508732 0.011932 H
0.042121 0.436423 0.909809 H
0.172041 0.195651 0.619682 H
0.278506 0.092943 0.941239 H
0.754787 0.117993 0.028755 H
0.523047 0.602406 0.042057 H
0.571733 0.710091 0.118234 H
0.415833 0.427242 0.783282 H
0.563959 0.404965 0.776150 H
0.311854 0.930952 0.367325 H
0.748020 0.111196 0.916973 H
0.400136 0.816810 0.632924 H
