Sr1 Nb4 H18                             
   1.00000000000000     
     3.4230857636594312    0.0896814750919874    0.0906012506716756
    -0.6523935631912321    6.7119909490146519   -0.3819472364866632
     0.0801713996658156   -1.0719010362859007    7.9872692328775239
   Sr   Nb   H 
     1     4    18
Direct
  0.0124440623727405  0.2110236442316321  0.9905879707755402
  0.4905420785684738  0.8679829370783361  0.6534162229779785
  0.0697081479414127  0.0237695203659665  0.3700534005731304
  0.5850392123378837  0.6306655015897600  0.3101061885374624
  0.5588791923134822  0.3682245374752548  0.6303432971388103
  0.5623787555024017  0.6409092534430566  0.7571746342796616
  0.5613745454500672  0.4348390053709891  0.8561428926137692
  0.9175778680740448  0.7938078144635561  0.4912023512997835
  0.1037954649184489  0.9454309714244670  0.1449685901582647
  0.7362439528147918  0.7662570267817944  0.1130554519099257
  0.0829006406078708  0.5568054408398134  0.2078233566403480
  0.5830625913669002  0.6714225058506698  0.0721558008005470
  0.5782939804001759  0.0370098380649508  0.2578471464604282
  0.5583930019204337  0.0735193364465724  0.5074438674385366
  0.1316295628736690  0.2340608500644326  0.2682389444501793
  0.5128323435835254  0.1511573046389569  0.7567726929942736
  0.9717147902514816  0.8929754136667074  0.7645869926257089
  0.0758272667586735  0.2884543803640808  0.5004817551104946
  0.0653569254887278  0.4151127992120229  0.7447166379051806
  0.3441509347053444  0.5954969012250984  0.5224728332950287
  0.5401216193090604  0.4029364124821932  0.1451510762687014
  0.7351149386082113  0.4282977485452862  0.4066057399928181
  0.4716881238321825  0.9150568563744029  0.8861111557534341
 
  0.00000000E+00  0.00000000E+00  0.00000000E+00
  0.00000000E+00  0.00000000E+00  0.00000000E+00
  0.00000000E+00  0.00000000E+00  0.00000000E+00
  0.00000000E+00  0.00000000E+00  0.00000000E+00
  0.00000000E+00  0.00000000E+00  0.00000000E+00
  0.00000000E+00  0.00000000E+00  0.00000000E+00
  0.00000000E+00  0.00000000E+00  0.00000000E+00
  0.00000000E+00  0.00000000E+00  0.00000000E+00
  0.00000000E+00  0.00000000E+00  0.00000000E+00
  0.00000000E+00  0.00000000E+00  0.00000000E+00
  0.00000000E+00  0.00000000E+00  0.00000000E+00
  0.00000000E+00  0.00000000E+00  0.00000000E+00
  0.00000000E+00  0.00000000E+00  0.00000000E+00
  0.00000000E+00  0.00000000E+00  0.00000000E+00
  0.00000000E+00  0.00000000E+00  0.00000000E+00
  0.00000000E+00  0.00000000E+00  0.00000000E+00
  0.00000000E+00  0.00000000E+00  0.00000000E+00
  0.00000000E+00  0.00000000E+00  0.00000000E+00
  0.00000000E+00  0.00000000E+00  0.00000000E+00
  0.00000000E+00  0.00000000E+00  0.00000000E+00
  0.00000000E+00  0.00000000E+00  0.00000000E+00
  0.00000000E+00  0.00000000E+00  0.00000000E+00
  0.00000000E+00  0.00000000E+00  0.00000000E+00
