Sr1 Nb4 H16                             
   1.00000000000000     
     5.7148817314947751    0.7403865211193906   -0.0466315414380876
     2.0967873499784764    6.0145163638925165    0.9387081705786401
    -0.0789514285016774    0.8481542623496665    5.2803479423325363
   Nb   H    Sr   H    Nb   H    Nb   H    Nb   H 
     1     2     1     5     1     2     1     2     1     5
Direct
  0.2776792047102969  0.8512824340291210  0.9675680090716606
  0.5864905372158143  0.5895341520892284  0.8935324829894826
  0.2336180970167858  0.9349341472018936  0.2802179791905993
  0.0137281642519621  0.3747986882226693  0.1789405380165680
  0.5928912138968448  0.6969872691484182  0.2061849283997259
  0.5961041253918377  0.2432788563481255  0.0310027279062443
  0.6929099133627189  0.0723229308415053  0.1124039975627297
  0.3376087690975628  0.1304858629362379  0.8952034542366184
  0.3140520684748694  0.4084161845478345  0.5872932217165621
  0.6453182568662341  0.1290007095425544  0.7412085668414190
  0.2230279834084673  0.5948240493366344  0.8903981358552193
  0.4775409415693630  0.0999732339478329  0.4467509649374762
  0.0705958770534200  0.7463543152785289  0.5366965612359283
  0.1693115433753261  0.6563392886756534  0.2269294435975650
  0.8188653057097284  0.7741348951327874  0.7909212451784223
  0.5896869560441137  0.7464778491663087  0.5429903535528080
  0.9399357868284199  0.5248063381977075  0.5474323943314605
  0.2267596679435145  0.9568635110374465  0.6014468613924907
  0.6645793799216572  0.4173689866695057  0.5469258317487605
  0.9532263099872140  0.1462428827186611  0.8636153165802095
  0.8341128978738779  0.1002894149313170  0.4474659856580515
 
  0.00000000E+00  0.00000000E+00  0.00000000E+00
  0.00000000E+00  0.00000000E+00  0.00000000E+00
  0.00000000E+00  0.00000000E+00  0.00000000E+00
  0.00000000E+00  0.00000000E+00  0.00000000E+00
  0.00000000E+00  0.00000000E+00  0.00000000E+00
  0.00000000E+00  0.00000000E+00  0.00000000E+00
  0.00000000E+00  0.00000000E+00  0.00000000E+00
  0.00000000E+00  0.00000000E+00  0.00000000E+00
  0.00000000E+00  0.00000000E+00  0.00000000E+00
  0.00000000E+00  0.00000000E+00  0.00000000E+00
  0.00000000E+00  0.00000000E+00  0.00000000E+00
  0.00000000E+00  0.00000000E+00  0.00000000E+00
  0.00000000E+00  0.00000000E+00  0.00000000E+00
  0.00000000E+00  0.00000000E+00  0.00000000E+00
  0.00000000E+00  0.00000000E+00  0.00000000E+00
  0.00000000E+00  0.00000000E+00  0.00000000E+00
  0.00000000E+00  0.00000000E+00  0.00000000E+00
  0.00000000E+00  0.00000000E+00  0.00000000E+00
  0.00000000E+00  0.00000000E+00  0.00000000E+00
  0.00000000E+00  0.00000000E+00  0.00000000E+00
  0.00000000E+00  0.00000000E+00  0.00000000E+00
