Sr5 Nb1 H15                             
   1.00000000000000     
     6.5976102431797807    0.2899526003743526    0.4178280507154232
     2.9463535182560801    5.6138718354373713    0.4103542863803079
     1.4650404477463481    1.4148924658697608    7.1939229575108437
   Sr   H    Sr   H    Sr   H    Nb   H 
     1    10     1     1     3     2     1     2
Direct
  0.7418812106672328  0.9889389923480890  0.3616214249395188
  0.4238536075654639  0.0735429929306112  0.0531262809181260
  0.0755092768659179  0.8596875784792013  0.1051898300928703
  0.3944917840734628  0.3445751637645412  0.2826167466354247
  0.7465643181269523  0.6578522656713454  0.6349464150604132
  0.8136791609256074  0.2860501803373951  0.0416702320136697
  0.4019046329653801  0.8982243282540664  0.5002168566034534
  0.0972554569774164  0.0980234053990989  0.2364806318749928
  0.8069704872781416  0.6643170666920062  0.2290135893517797
  0.6977776516814767  0.2712644003334277  0.5585989612009491
  0.4169048176045660  0.8052630184187876  0.9580654250968740
  0.4358990935446392  0.5389107157050712  0.7905124530684030
  0.1094154018250820  0.7120679652124304  0.5659699773353652
  0.0725762977361901  0.3051790028716654  0.4833894690516413
  0.4386542791002565  0.6672459878201005  0.3011106394026027
  0.8086810288013373  0.8023473120697248  0.8679889128960067
  0.0902938924946029  0.9976317263062313  0.8035662142171575
  0.9993820344826261  0.3761197344898093  0.7940654921431749
  0.1550335686572110  0.1181995578311109  0.9732547084214470
  0.3675003749023028  0.1615267092558751  0.7580285315695644
  0.1234096237240996  0.4146798958094273  0.0012322081065614
 
  0.00000000E+00  0.00000000E+00  0.00000000E+00
  0.00000000E+00  0.00000000E+00  0.00000000E+00
  0.00000000E+00  0.00000000E+00  0.00000000E+00
  0.00000000E+00  0.00000000E+00  0.00000000E+00
  0.00000000E+00  0.00000000E+00  0.00000000E+00
  0.00000000E+00  0.00000000E+00  0.00000000E+00
  0.00000000E+00  0.00000000E+00  0.00000000E+00
  0.00000000E+00  0.00000000E+00  0.00000000E+00
  0.00000000E+00  0.00000000E+00  0.00000000E+00
  0.00000000E+00  0.00000000E+00  0.00000000E+00
  0.00000000E+00  0.00000000E+00  0.00000000E+00
  0.00000000E+00  0.00000000E+00  0.00000000E+00
  0.00000000E+00  0.00000000E+00  0.00000000E+00
  0.00000000E+00  0.00000000E+00  0.00000000E+00
  0.00000000E+00  0.00000000E+00  0.00000000E+00
  0.00000000E+00  0.00000000E+00  0.00000000E+00
  0.00000000E+00  0.00000000E+00  0.00000000E+00
  0.00000000E+00  0.00000000E+00  0.00000000E+00
  0.00000000E+00  0.00000000E+00  0.00000000E+00
  0.00000000E+00  0.00000000E+00  0.00000000E+00
  0.00000000E+00  0.00000000E+00  0.00000000E+00
