H17                                     
   1.00000000000000     
     2.7907462518910076   -0.3386813896918115   -0.2044246601989081
     0.2123532208808457    4.5159900490106404    0.6421108882310574
     0.3286176523982798    1.1694198243165890    8.2494324191520825
   H 
    17
Direct
  0.5646498910341898  0.2774952512498390  0.9581952026731413
  0.3920623792063307  0.3791153340635244  0.9754900609775992
  0.4175970644170947  0.0260259939158924  0.6977201786353964
  0.4664769637308371  0.1270501987624509  0.7538320304692421
  0.8605636446780126  0.6277786482613069  0.7494669952773858
  0.8723140814894680  0.8105625027598227  0.9542754527419299
  0.0473244010573156  0.5632022190122185  0.7122620828368053
  0.9758728611964002  0.8924943565726925  0.0151113922932637
  0.8552334289452332  0.0557521071620196  0.5010812753224547
  0.0346421184714489  0.0087881252645184  0.4525502381584363
  0.4135395316672817  0.5276006334072391  0.4799759495550460
  0.1899549557846754  0.3623142628614692  0.2013805527092985
  0.1470856529456427  0.5047083166278573  0.2236459067105680
  0.7422583127110288  0.5254259577465371  0.4663212013167871
  0.0784115668153131  0.5360206467913226  0.4706600248096035
  0.4318848825732620  0.9690337834794095  0.2636630346892088
  0.5500472632764414  0.9046676620618878  0.2045214208238011
 
  0.00000000E+00  0.00000000E+00  0.00000000E+00
  0.00000000E+00  0.00000000E+00  0.00000000E+00
  0.00000000E+00  0.00000000E+00  0.00000000E+00
  0.00000000E+00  0.00000000E+00  0.00000000E+00
  0.00000000E+00  0.00000000E+00  0.00000000E+00
  0.00000000E+00  0.00000000E+00  0.00000000E+00
  0.00000000E+00  0.00000000E+00  0.00000000E+00
  0.00000000E+00  0.00000000E+00  0.00000000E+00
  0.00000000E+00  0.00000000E+00  0.00000000E+00
  0.00000000E+00  0.00000000E+00  0.00000000E+00
  0.00000000E+00  0.00000000E+00  0.00000000E+00
  0.00000000E+00  0.00000000E+00  0.00000000E+00
  0.00000000E+00  0.00000000E+00  0.00000000E+00
  0.00000000E+00  0.00000000E+00  0.00000000E+00
  0.00000000E+00  0.00000000E+00  0.00000000E+00
  0.00000000E+00  0.00000000E+00  0.00000000E+00
  0.00000000E+00  0.00000000E+00  0.00000000E+00
