Sr2 Nb1 H14                             
   1.00000000000000     
     4.2820463392160253    0.2379578175805733    0.2932152433644758
    -0.6719714599792525    5.4737554047274637   -0.4219028112142355
    -0.2022369548411382   -1.5691878406539639    6.3914349511817434
   Sr   H    Nb   H    Sr   H 
     1    12     1     1     1     1
Direct
  0.6976502326109315  0.4287296097461210  0.7981524324155732
  0.4461139303655149  0.5259345299102964  0.4805484825159110
  0.9152240351685058  0.6497755747324611  0.5519691066452909
  0.7966554865947288  0.8342436406587450  0.1628889937561805
  0.7272712858287342  0.4914284642008302  0.2055414258508456
  0.6523612508167466  0.1015887864206312 -0.0263272177017198
  0.0523633719670971  0.8579159324907331  0.8590582871944125
  0.1479901419489183  0.7858345645976310  0.9143696018489543
  0.3779316579409291  0.9201661727083766  0.6493888830193344
  0.5641479629367594  0.1109956096041320  0.4106773917765873
  0.5316033423705981  0.9512745513336638  0.7346717064409414
  0.2213187338148748  0.7467190822474832  0.2769676599042969
  0.3618479779708498  0.6892965362002452  0.1771185670266791
  0.6543545100006680  0.7890088431040473  0.4098447981766783
  0.9535750598306777  0.0412096930492780  0.5511716591296155
  0.1368152422527488  0.2146449013049145  0.2074000235184109
  0.1918487775806923  0.3846295076904152  0.9113671984820367
 
  0.00000000E+00  0.00000000E+00  0.00000000E+00
  0.00000000E+00  0.00000000E+00  0.00000000E+00
  0.00000000E+00  0.00000000E+00  0.00000000E+00
  0.00000000E+00  0.00000000E+00  0.00000000E+00
  0.00000000E+00  0.00000000E+00  0.00000000E+00
  0.00000000E+00  0.00000000E+00  0.00000000E+00
  0.00000000E+00  0.00000000E+00  0.00000000E+00
  0.00000000E+00  0.00000000E+00  0.00000000E+00
  0.00000000E+00  0.00000000E+00  0.00000000E+00
  0.00000000E+00  0.00000000E+00  0.00000000E+00
  0.00000000E+00  0.00000000E+00  0.00000000E+00
  0.00000000E+00  0.00000000E+00  0.00000000E+00
  0.00000000E+00  0.00000000E+00  0.00000000E+00
  0.00000000E+00  0.00000000E+00  0.00000000E+00
  0.00000000E+00  0.00000000E+00  0.00000000E+00
  0.00000000E+00  0.00000000E+00  0.00000000E+00
  0.00000000E+00  0.00000000E+00  0.00000000E+00
