Sr2 Nb1 H8
1.0
3.407139 -0.000000 -0.000000
-1.077399 8.455467 -0.000000
-0.836668 -3.023954 8.302628
H Sr Nb H Sr H
1 1 1 5 1 2
direct
0.202190 0.608182 0.464807 H
0.821628 0.554022 0.273951 Sr
0.435825 0.384216 0.374281 Nb
0.299363 0.552250 0.907287 H
0.535330 0.452805 0.912195 H
0.392611 0.975576 0.899770 H
0.110707 0.079368 0.834954 H
0.097326 0.962632 0.045234 H
0.075881 0.298179 0.936929 Sr
0.689397 0.834593 0.735424 H
0.063206 0.322481 0.675125 H
