Sr2 Nb3 H17
1.0
3.755401 -0.155485 -0.266232
-0.018997 6.675340 -0.802685
-0.552211 -1.157797 7.616420
Sr Nb H
2 3 17
direct
0.989084 0.795765 0.187012 Sr
0.204295 0.337339 0.280687 Sr
0.765830 0.670023 0.599058 Nb
0.719515 0.142392 0.583982 Nb
0.314030 0.521030 0.817439 Nb
0.840227 0.637575 0.848667 H
0.326682 0.502593 0.059463 H
0.892922 0.974249 0.735452 H
0.444216 0.913983 0.602245 H
0.880168 0.880976 0.484601 H
0.596804 0.058059 0.317118 H
0.754920 0.375387 0.480734 H
0.696937 0.589523 0.339215 H
0.653692 0.185383 0.083209 H
0.621178 0.275611 0.038297 H
0.483613 0.241364 0.784766 H
0.214837 0.010329 0.003957 H
0.045246 0.063414 0.980755 H
0.996857 0.292823 0.811997 H
0.425400 0.780991 0.985429 H
0.207120 0.158752 0.506654 H
0.259193 0.588322 0.578200 H
