H20                                     
   1.00000000000000     
     2.8254401976000918   -0.2155720842959247   -0.0658354151051606
    -0.4354303638739621    6.4986144232149003    0.0272475434082605
    -0.2449312467613257   -1.2815828776581839    6.3402660560440234
   H 
    20
Direct
  0.7471285095630998  0.1426394169721704  0.1043115274397690
  0.6200734042308258  0.2359903201555119  0.1264026081523081
  0.2178324819631720  0.4832165826376487  0.1924086697837287
  0.4358531345320363  0.5508826834793125  0.1681003549692229
  0.0611186486772350  0.7986597767921643  0.1482527931561647
  0.8965658594499549  0.8787799641278723  0.1628961592319355
  0.9030687145653953  0.4131532502852572  0.4746994405818266
  0.7480345293915704  0.4970677429180956  0.4909186581219161
  0.1440364395048223  0.1281903269206647  0.4656950311806025
  0.2868958295403209  0.1557285061694715  0.3781917811403684
  0.8487316306817531  0.8184072531644958  0.4993332872383727
  0.5608558770494663  0.2445621241314105  0.8046760208061565
  0.6803426294623416  0.2904965546541744  0.7201214483168471
  0.9846983534638295  0.0184042707145534  0.8159756341907370
  0.1416067229088164  0.9507315173027288  0.8572955405604443
  0.5135931469048829  0.8184941328297135  0.5008784027566094
  0.1779947230422049  0.8106544644687405  0.5019321351840674
  0.9195543301523816  0.6215352091949315  0.8350796532440384
  0.2534192468860447  0.6226968895286072  0.8343020450281996
  0.5913097880298190  0.6311560135524807  0.8361858089166763
 
  0.00000000E+00  0.00000000E+00  0.00000000E+00
  0.00000000E+00  0.00000000E+00  0.00000000E+00
  0.00000000E+00  0.00000000E+00  0.00000000E+00
  0.00000000E+00  0.00000000E+00  0.00000000E+00
  0.00000000E+00  0.00000000E+00  0.00000000E+00
  0.00000000E+00  0.00000000E+00  0.00000000E+00
  0.00000000E+00  0.00000000E+00  0.00000000E+00
  0.00000000E+00  0.00000000E+00  0.00000000E+00
  0.00000000E+00  0.00000000E+00  0.00000000E+00
  0.00000000E+00  0.00000000E+00  0.00000000E+00
  0.00000000E+00  0.00000000E+00  0.00000000E+00
  0.00000000E+00  0.00000000E+00  0.00000000E+00
  0.00000000E+00  0.00000000E+00  0.00000000E+00
  0.00000000E+00  0.00000000E+00  0.00000000E+00
  0.00000000E+00  0.00000000E+00  0.00000000E+00
  0.00000000E+00  0.00000000E+00  0.00000000E+00
  0.00000000E+00  0.00000000E+00  0.00000000E+00
  0.00000000E+00  0.00000000E+00  0.00000000E+00
  0.00000000E+00  0.00000000E+00  0.00000000E+00
  0.00000000E+00  0.00000000E+00  0.00000000E+00
