Sr2 Nb1 H7
1.0
3.674025 -0.712226 -0.064912
0.708285 3.671888 -0.528952
1.808985 -1.009664 8.199373
Sr Nb H
2 1 7
direct
0.898655 0.058661 0.267098 Sr
0.636079 0.309041 0.804264 Sr
0.267078 0.683741 0.535132 Nb
0.386706 0.576444 0.292779 H
0.519868 0.952442 0.030808 H
0.045898 0.594016 0.993955 H
0.146845 0.802989 0.779645 H
0.031663 0.415312 0.026059 H
0.249410 0.198304 0.566110 H
0.746766 0.672744 0.576665 H
