Sr5 Nb1 H15                             
   1.00000000000000     
     6.5657561762290602    0.0384571544628967   -0.2043984453553065
     3.1919926964780649    5.8629572372396428   -0.0879174675245704
     1.6738950434379378    1.9816002523789562    6.5089571669797959
   Sr   H    Nb   H    Sr   H    Sr   H    Sr
     1     9     1     2     2     2     1     2     1
Direct
  0.9210063219276805  0.3199124287299070  0.6270527400563108
  0.7173696626502235  0.1332075338239417  0.8418185975193782
  0.2088611724388885  0.8984059710587597  0.8214183539231219
  0.9782778092205293  0.3815769771625083  0.2384800439196481
  0.5933635676603860  0.5867584340203850  0.7626852497414630
  0.9252044264655230  0.7034434189547588  0.4878392077445858
  0.5829772953944429  0.3640963875478505  0.4853690227359535
  0.0911153709771325  0.0370390679107658  0.4320623952226268
  0.1053355047720328  0.2093336852212701  0.9874952747426388
  0.2715020109493679  0.2575090969285704  0.4113513949579954
  0.2763018934692339  0.1213682215885034  0.2166804425042507
  0.5029244481178724  0.9461963714196633  0.0446846291810022
  0.8727432734227620  0.6736708359851279  0.8779234567629761
  0.9309845472646756  0.8221583532839059  0.1152483192690908
  0.5796590109284053  0.9711722378427570  0.6565286489230939
  0.2415865287895780  0.8538675941244137  0.2292352219955590
  0.4676926723218905  0.8446360304846423  0.4014946350519538
  0.5944245493505161  0.5051038050576899  0.1162803902774785
  0.5572146818762350  0.1135426217334071  0.2367332757930237
  0.2830813901658762  0.4182273923878915  0.0473325305994565
  0.2567258618367450  0.6211365347332560  0.6616231690783924
 
  0.00000000E+00  0.00000000E+00  0.00000000E+00
  0.00000000E+00  0.00000000E+00  0.00000000E+00
  0.00000000E+00  0.00000000E+00  0.00000000E+00
  0.00000000E+00  0.00000000E+00  0.00000000E+00
  0.00000000E+00  0.00000000E+00  0.00000000E+00
  0.00000000E+00  0.00000000E+00  0.00000000E+00
  0.00000000E+00  0.00000000E+00  0.00000000E+00
  0.00000000E+00  0.00000000E+00  0.00000000E+00
  0.00000000E+00  0.00000000E+00  0.00000000E+00
  0.00000000E+00  0.00000000E+00  0.00000000E+00
  0.00000000E+00  0.00000000E+00  0.00000000E+00
  0.00000000E+00  0.00000000E+00  0.00000000E+00
  0.00000000E+00  0.00000000E+00  0.00000000E+00
  0.00000000E+00  0.00000000E+00  0.00000000E+00
  0.00000000E+00  0.00000000E+00  0.00000000E+00
  0.00000000E+00  0.00000000E+00  0.00000000E+00
  0.00000000E+00  0.00000000E+00  0.00000000E+00
  0.00000000E+00  0.00000000E+00  0.00000000E+00
  0.00000000E+00  0.00000000E+00  0.00000000E+00
  0.00000000E+00  0.00000000E+00  0.00000000E+00
  0.00000000E+00  0.00000000E+00  0.00000000E+00
