Sr2 Nb1 H7
1.0
3.147657 -0.610294 -0.295131
0.600322 3.208669 -0.396181
-0.562884 -1.536706 14.997464
Sr Nb H
2 1 7
direct
0.176656 0.187570 0.289480 Sr
0.364191 0.557087 0.671121 Sr
0.774362 0.872651 0.487518 Nb
0.334692 0.608240 0.844993 H
0.577029 0.603481 0.844437 H
0.061469 0.998914 0.092873 H
0.921834 0.850573 0.108669 H
0.714620 0.765149 0.360162 H
0.640560 0.618544 0.218309 H
0.805869 0.440234 0.554434 H
