Sr1 Nb2 H14                             
   1.00000000000000     
     3.6453765772732414   -0.1632980242148528    0.1763853425027415
     0.0144696592675423    5.2595372163457554    0.2062437297670225
     0.7080769811211299    0.8661061301061568    7.8807348145176492
   Sr   Nb   H 
     1     2    14
Direct
  0.6549050189299217  0.2430878549191455  0.6735467970950669
  0.3067614559562182  0.6127828454522296  0.2701236133070096
  0.0203204553542526  0.7023333640963033  0.9233200304084428
  0.1485430549749171  0.4340065308412914  0.0943700379619025
  0.7304987231183977  0.4197316381893389  0.9527893051921006
  0.5725917216966098  0.7700158162990479  0.0581414691842734
  0.2332100885961280  0.3301172902696490  0.4539420762599299
  0.5742139679164107  0.7461394973911787  0.4504965316840275
  0.0456455263410143  0.8265733923796915  0.3777624918811709
  0.3602262518090130  0.7196279038005899  0.4991836654787750
  0.1414426806969327  0.9075278140245768  0.7117313796949588
  0.1367515111643198  0.5007916854292607  0.7512670608920881
  0.4396605931652954  0.9392721054741057  0.2542930927840747
  0.9091852506228344  0.0283297221199911  0.9241751139004714
  0.0743714988511592  0.8516994077386710  0.1301056602224711
  0.5978976302786049  0.7400386860106019  0.8087248182431468
  0.7989015705279666  0.4788534455643404  0.3140728558100910
 
  0.00000000E+00  0.00000000E+00  0.00000000E+00
  0.00000000E+00  0.00000000E+00  0.00000000E+00
  0.00000000E+00  0.00000000E+00  0.00000000E+00
  0.00000000E+00  0.00000000E+00  0.00000000E+00
  0.00000000E+00  0.00000000E+00  0.00000000E+00
  0.00000000E+00  0.00000000E+00  0.00000000E+00
  0.00000000E+00  0.00000000E+00  0.00000000E+00
  0.00000000E+00  0.00000000E+00  0.00000000E+00
  0.00000000E+00  0.00000000E+00  0.00000000E+00
  0.00000000E+00  0.00000000E+00  0.00000000E+00
  0.00000000E+00  0.00000000E+00  0.00000000E+00
  0.00000000E+00  0.00000000E+00  0.00000000E+00
  0.00000000E+00  0.00000000E+00  0.00000000E+00
  0.00000000E+00  0.00000000E+00  0.00000000E+00
  0.00000000E+00  0.00000000E+00  0.00000000E+00
  0.00000000E+00  0.00000000E+00  0.00000000E+00
  0.00000000E+00  0.00000000E+00  0.00000000E+00
