H15                                     
   1.00000000000000     
     5.4126975322929098    0.2537810917837793   -0.0786561790704708
    -0.7537471268723601    2.9010093931360341    0.0814571038682750
    -0.8160619250689760   -0.5904793605487546    8.5516658213442902
   H 
    15
Direct
  0.8623684510539686  0.6744396318898283  0.8141993832012370
  0.8447085339478919  0.6582802249515286  0.8991206141105701
  0.7612592290251697  0.1307720936236867  0.0633179976050285
  0.7485650808611135  0.0905580438292510  0.1482790410412397
  0.1892161261279474  0.9066038575983588  0.2725321429259611
  0.1969344226246809  0.9254840554728498  0.3602764141229301
  0.7080723306425127  0.5809539814963589  0.3315873665522585
  0.5806488909356901  0.5618361419185767  0.3597574129091413
  0.2525339924509071  0.4100742370619380  0.9798344808039069
  0.3441468570578142  0.4107372352449886  0.0522943794995187
  0.3344254305619084  0.3557027615091599  0.6750011670145438
  0.3341438227854187  0.6895215944099835  0.6751045241383643
  0.8200814234229120  0.1167297556222357  0.5452812342746861
  0.8275256983059379  0.1630213115104488  0.6316823954786919
  0.3340027101961185  0.0227760738608131  0.6751704463219195
 
  0.00000000E+00  0.00000000E+00  0.00000000E+00
  0.00000000E+00  0.00000000E+00  0.00000000E+00
  0.00000000E+00  0.00000000E+00  0.00000000E+00
  0.00000000E+00  0.00000000E+00  0.00000000E+00
  0.00000000E+00  0.00000000E+00  0.00000000E+00
  0.00000000E+00  0.00000000E+00  0.00000000E+00
  0.00000000E+00  0.00000000E+00  0.00000000E+00
  0.00000000E+00  0.00000000E+00  0.00000000E+00
  0.00000000E+00  0.00000000E+00  0.00000000E+00
  0.00000000E+00  0.00000000E+00  0.00000000E+00
  0.00000000E+00  0.00000000E+00  0.00000000E+00
  0.00000000E+00  0.00000000E+00  0.00000000E+00
  0.00000000E+00  0.00000000E+00  0.00000000E+00
  0.00000000E+00  0.00000000E+00  0.00000000E+00
  0.00000000E+00  0.00000000E+00  0.00000000E+00
