Sr1 Nb2 H8                              
   1.00000000000000     
     3.3441215825098727   -0.0455204781399156    0.5823416620262775
    -0.0868466871300617    3.4535072917640908    0.7422717473428477
     0.2925614254605605    0.2579440442637332    7.9925727828875219
   Sr   Nb   H 
     1     2     8
Direct
  0.3379990027558829  0.4667644504741367  0.7639684494841674
  0.0236698486061049  0.1522376889006077  0.3964129925949568
  0.6522959116233625  0.7814224082724264  0.1315179698542812
  0.9674072269683688  0.5809267581074186  0.5085570270840826
  0.2015402085019976  0.6999566561955242  0.0292527925010081
  0.9056143520526567  0.0102113945761909  0.6414730247273370
  0.7702846174256432  0.9231684003051802  0.8866090581436563
  0.1360151147001120  0.0629026382775059  0.1663091709583683
  0.5399225726396826  0.8706462414376471  0.3617191459812995
  0.7085541796841550  0.3524189359387855  0.0194145445076694
  0.4744399650420326  0.2336994275145693  0.4986868241631700
 
  0.00000000E+00  0.00000000E+00  0.00000000E+00
  0.00000000E+00  0.00000000E+00  0.00000000E+00
  0.00000000E+00  0.00000000E+00  0.00000000E+00
  0.00000000E+00  0.00000000E+00  0.00000000E+00
  0.00000000E+00  0.00000000E+00  0.00000000E+00
  0.00000000E+00  0.00000000E+00  0.00000000E+00
  0.00000000E+00  0.00000000E+00  0.00000000E+00
  0.00000000E+00  0.00000000E+00  0.00000000E+00
  0.00000000E+00  0.00000000E+00  0.00000000E+00
  0.00000000E+00  0.00000000E+00  0.00000000E+00
  0.00000000E+00  0.00000000E+00  0.00000000E+00
