Sr6 Nb3 H27
1.0
2.928035 -5.071506 0.000000
2.928035 5.071506 0.000000
0.000000 0.000000 14.560921
Sr Nb H
6 3 27
direct
0.666667 0.333333 0.519363 Sr
0.333333 0.666667 0.335302 Sr
0.333333 0.666667 0.852696 Sr
0.000000 0.000000 0.668636 Sr
0.000000 0.000000 0.186030 Sr
0.666667 0.333333 0.001969 Sr
0.000000 0.000000 0.428736 Nb
0.666667 0.333333 0.762069 Nb
0.333333 0.666667 0.095402 Nb
0.009066 0.223250 0.521185 H
0.214184 0.990934 0.521185 H
0.776750 0.785816 0.521185 H
0.239384 0.030298 0.336437 H
0.969702 0.209086 0.336437 H
0.790914 0.760616 0.336437 H
0.681281 0.986354 0.431075 H
0.013646 0.694927 0.431075 H
0.305073 0.318719 0.431075 H
0.675732 0.556583 0.854518 H
0.880851 0.324268 0.854518 H
0.443417 0.119149 0.854518 H
0.906051 0.363631 0.669770 H
0.636369 0.542419 0.669770 H
0.457581 0.093949 0.669770 H
0.347948 0.319687 0.764409 H
0.680313 0.028261 0.764409 H
0.971739 0.652052 0.764409 H
0.342399 0.889917 0.187852 H
0.547518 0.657601 0.187852 H
0.110083 0.452482 0.187852 H
0.572717 0.696965 0.003104 H
0.303035 0.875753 0.003104 H
0.124247 0.427283 0.003104 H
0.014614 0.653020 0.097742 H
0.346980 0.361594 0.097742 H
0.638406 0.985386 0.097742 H
