Sr2 Nb1 H9                              
   1.00000000000000     
     5.8561082381718643   -0.0067844571989762   -0.0062987722827266
    -2.9215671943064709    5.0742025731980140    0.0064498247769381
    -2.9239948496523991   -1.6889238831220665    4.8649861605761746
   Sr   H    Nb   Sr
     1     9     1     1
Direct
  0.8058264907520771  0.0418706494302183  0.9915094246894435
  0.2611907579232403  0.3852074472149564  0.9968982548017986
  0.6993314118616663  0.5918250988596523  0.9965337139796782
  0.4677255659691720  0.1536800542466732  0.9967021124362899
  0.3151506341096834  0.4313142823413958  0.4426596752422474
  0.8672975947539330  0.1614437329218938  0.4430992460941363
  0.1367177177969460  0.9834181638772738  0.4425179753863827
  0.9901667689654130  0.9672136653564933  0.7264962218590824
  0.6143664166378929  0.2998674902676105  0.7257035544789583
  0.2819126238480100  0.5923193111690278  0.7262103932641395
  0.2908582006974683  0.2844193308012814  0.7188236497994982
  0.7707198166844895  0.5242157735135170  0.4388837779683569
 
  0.00000000E+00  0.00000000E+00  0.00000000E+00
  0.00000000E+00  0.00000000E+00  0.00000000E+00
  0.00000000E+00  0.00000000E+00  0.00000000E+00
  0.00000000E+00  0.00000000E+00  0.00000000E+00
  0.00000000E+00  0.00000000E+00  0.00000000E+00
  0.00000000E+00  0.00000000E+00  0.00000000E+00
  0.00000000E+00  0.00000000E+00  0.00000000E+00
  0.00000000E+00  0.00000000E+00  0.00000000E+00
  0.00000000E+00  0.00000000E+00  0.00000000E+00
  0.00000000E+00  0.00000000E+00  0.00000000E+00
  0.00000000E+00  0.00000000E+00  0.00000000E+00
  0.00000000E+00  0.00000000E+00  0.00000000E+00
