Sr2 Nb1 H8                              
   1.00000000000000     
     5.8110010891351225    0.0935142676631052    0.0462536638051229
     2.8516014981678000    5.1093591246060397    0.0108427290664071
     2.8376856708451612    1.8157455441889427    4.7539167356650527
   H    Nb   H    Sr
     2     1     6     2
Direct
  0.4969077359496945  0.7432156347175592  0.0095116196237821
  0.1024297706233057  0.6447777751793938  0.4417652803867110
  0.7792356934751127  0.5826214240125881  0.7271643010538896
  0.6626955462393068  0.8842765078850223  0.4275874457314957
  0.0320865057909312  0.3620301798181531  0.9488037449626526
  0.6440758551818895  0.2870033036019891  0.0155454473084014
  0.8543657729374943  0.8717533335249195  0.6876335743538639
  0.4667456281065614  0.5979036671345419  0.7079482837403434
  0.9565679140032303  0.3105049842119498  0.5457277370389191
  0.0353416978730645  0.8331724033112418  0.9899087026624330
  0.5499908798194046  0.3209927866026330  0.4714758631375033
 
  0.00000000E+00  0.00000000E+00  0.00000000E+00
  0.00000000E+00  0.00000000E+00  0.00000000E+00
  0.00000000E+00  0.00000000E+00  0.00000000E+00
  0.00000000E+00  0.00000000E+00  0.00000000E+00
  0.00000000E+00  0.00000000E+00  0.00000000E+00
  0.00000000E+00  0.00000000E+00  0.00000000E+00
  0.00000000E+00  0.00000000E+00  0.00000000E+00
  0.00000000E+00  0.00000000E+00  0.00000000E+00
  0.00000000E+00  0.00000000E+00  0.00000000E+00
  0.00000000E+00  0.00000000E+00  0.00000000E+00
  0.00000000E+00  0.00000000E+00  0.00000000E+00
