Sr2 Nb2 H17
1.0
3.838590 -0.039051 0.119968
0.642949 6.001992 0.482656
0.267507 1.160928 7.318302
Sr Nb H
2 2 17
direct
0.524866 0.184692 0.853784 Sr
0.270599 0.234272 0.371208 Sr
0.786541 0.592961 0.013032 Nb
0.743140 0.696181 0.534214 Nb
0.428825 0.486339 0.559547 H
0.264279 0.806987 0.494256 H
0.179003 0.011258 0.144077 H
0.362371 0.960930 0.174865 H
0.901980 0.877501 0.014055 H
0.430017 0.801509 0.950535 H
0.973186 0.707471 0.765953 H
0.980147 0.377630 0.897550 H
0.070858 0.113854 0.697254 H
0.103292 0.983337 0.737473 H
0.918362 0.389314 0.591942 H
0.660344 0.981049 0.595802 H
0.780603 0.593581 0.294125 H
0.750186 0.942780 0.336663 H
0.793956 0.296027 0.160488 H
0.533502 0.607275 0.789125 H
0.323818 0.495591 0.064046 H
