Sr2 Nb1 H13
1.0
3.747757 -0.210243 -0.199747
-0.321801 5.427051 0.633242
-1.388111 0.681725 7.324319
Sr Nb H
2 1 13
direct
0.081236 0.267608 0.854974 Sr
0.325773 0.139432 0.410098 Sr
0.759488 0.686904 0.127565 Nb
0.253796 0.571730 0.186069 H
0.108768 0.939562 0.131390 H
0.751313 0.725399 0.864077 H
0.586207 0.988965 0.996386 H
0.981900 0.751405 0.908844 H
0.719583 0.356432 0.095672 H
0.426458 0.661503 0.917076 H
0.821142 0.477225 0.360228 H
0.248811 0.652533 0.606290 H
0.110980 0.738495 0.617382 H
0.741562 0.863958 0.308510 H
0.901772 0.044071 0.605406 H
0.508317 0.355230 0.671137 H
