H17                                     
   1.00000000000000     
     2.7924007793068761    0.0614338087464585   -0.3357954517147673
    -0.0424908023373611    6.2946406546460887   -0.3075741482822847
    -0.6527793060436202   -0.2241351859484881    5.8005238061046640
   H 
    17
Direct
  0.7746836096536791  0.6724975399078953  0.8262353622190904
  0.1053762392582763  0.6746343716573948  0.8215561964891123
  0.7220481952694671  0.3428532379088721  0.0845270976526600
  0.7398413687960764  0.4612191090398299  0.0977649222815027
  0.4408465430972608  0.6733998887555696  0.8263030056063088
  0.7280044593942555  0.7899415896421063  0.2682181931565042
  0.9176088686282555  0.7287834257247786  0.3480892616039994
  0.3598969293141939  0.4713090975845940  0.5076023070423406
  0.4446304379895223  0.4656644196479538  0.3951009317371815
  0.2803325692856168  0.0096851283280056  0.9923482392769850
  0.1471918918442090  0.9927034628528059  0.0861631885331467
  0.8028387701353784  0.1033558832975816  0.3805949931514842
  0.9781848754896713  0.1812777108004872  0.3576800118701309
  0.9641616782880069  0.3009935047706074  0.7052937641753746
  0.1699066730770443  0.3144528656620607  0.8115507101335002
  0.4315213582222800  0.0275942055889777  0.6488755121851494
  0.6383565322568304  0.9500845588304772  0.6655393028855622
 
  0.00000000E+00  0.00000000E+00  0.00000000E+00
  0.00000000E+00  0.00000000E+00  0.00000000E+00
  0.00000000E+00  0.00000000E+00  0.00000000E+00
  0.00000000E+00  0.00000000E+00  0.00000000E+00
  0.00000000E+00  0.00000000E+00  0.00000000E+00
  0.00000000E+00  0.00000000E+00  0.00000000E+00
  0.00000000E+00  0.00000000E+00  0.00000000E+00
  0.00000000E+00  0.00000000E+00  0.00000000E+00
  0.00000000E+00  0.00000000E+00  0.00000000E+00
  0.00000000E+00  0.00000000E+00  0.00000000E+00
  0.00000000E+00  0.00000000E+00  0.00000000E+00
  0.00000000E+00  0.00000000E+00  0.00000000E+00
  0.00000000E+00  0.00000000E+00  0.00000000E+00
  0.00000000E+00  0.00000000E+00  0.00000000E+00
  0.00000000E+00  0.00000000E+00  0.00000000E+00
  0.00000000E+00  0.00000000E+00  0.00000000E+00
  0.00000000E+00  0.00000000E+00  0.00000000E+00
