H17                                     
   1.00000000000000     
     2.8262034650231853    0.0638004468060152   -0.3259539045374927
    -0.0254009634510380    6.1947198983950678   -0.2150959944839698
    -0.6479572739352485   -0.1394229795382679    5.7533660667245439
   H 
    17
Direct
  0.7749501128378962  0.6727413018930829  0.8257756406337912
  0.1035454809428815  0.6761254875586777  0.8188590506961489
  0.7215193851353282  0.3405316773522873  0.0839557407281715
  0.7410002888751873  0.4603846601486131  0.0982978708010787
  0.4404342175558545  0.6743856462515061  0.8254566703618358
  0.7285431315719825  0.7916650377311082  0.2704808229774084
  0.9123255094684273  0.7251877923285812  0.3496049700536263
  0.3577259940492943  0.4708590912944408  0.5066071010987684
  0.4442082153090471  0.4651650488115308  0.3941411653453710
  0.2753239725831594  0.0061162128561389 -0.0088320357583037
  0.1446930968130549  0.9889040710240012  0.0864717164023455
  0.8040422951012840  0.1020341171383331  0.3813259765118152
  0.9777767865279313  0.1803171054050585  0.3563523664860263
  0.9669690468933545  0.3055419211720575  0.7051320798302330
  0.1693985370899517  0.3150577612427350  0.8118041331317247
  0.4391367535573076  0.0323806682654648  0.6516819630986043
  0.6438381756880737  0.9530523995263731  0.6663277676013805
 
  0.00000000E+00  0.00000000E+00  0.00000000E+00
  0.00000000E+00  0.00000000E+00  0.00000000E+00
  0.00000000E+00  0.00000000E+00  0.00000000E+00
  0.00000000E+00  0.00000000E+00  0.00000000E+00
  0.00000000E+00  0.00000000E+00  0.00000000E+00
  0.00000000E+00  0.00000000E+00  0.00000000E+00
  0.00000000E+00  0.00000000E+00  0.00000000E+00
  0.00000000E+00  0.00000000E+00  0.00000000E+00
  0.00000000E+00  0.00000000E+00  0.00000000E+00
  0.00000000E+00  0.00000000E+00  0.00000000E+00
  0.00000000E+00  0.00000000E+00  0.00000000E+00
  0.00000000E+00  0.00000000E+00  0.00000000E+00
  0.00000000E+00  0.00000000E+00  0.00000000E+00
  0.00000000E+00  0.00000000E+00  0.00000000E+00
  0.00000000E+00  0.00000000E+00  0.00000000E+00
  0.00000000E+00  0.00000000E+00  0.00000000E+00
  0.00000000E+00  0.00000000E+00  0.00000000E+00
