Sr2 Nb3 H18                             
   1.00000000000000     
     3.8277569730251266   -0.0631045358905057   -0.1017547770021720
     0.1501571702052003    5.8227370369066058    0.1908918232819462
     0.2404390747144025    1.1159783899929803    8.2386575211523176
   H    Sr   Nb   H    Nb   H    Nb   H    Sr
     5     1     1     7     1     4     1     2     1
Direct
  0.2715103836364089  0.6262148741285871  0.7642819981488796
  0.0714817274694620  0.6443938720796429  0.7692466424852743
  0.9046405805629861 -0.0174066721010713  0.9310844237320273
  0.7032352340155973  0.6636049778422161  0.9386228199560855
  0.7004583098826587  0.3828018132881807  0.5547880112737302
  0.1710816991347386  0.7135787135802935  0.4784206728595459
  0.6691121072645304  0.2594788185573251  0.3319183236201723
  0.6629623602619719  0.4844532168096748  0.1349056449477535
  0.1715675151919931  0.3199678464057739  0.2945420707759523
  0.6689821754073287  0.1481473352140811  0.1292095364896161
  0.1685859424623044  0.7561524699677473  0.1520125287956252
  0.4010400863365426  0.1126319523048799  0.5065951784841441
  0.2448811591072862  0.2713536346950211  0.7105936336014330
  0.4251225615809182  0.9744293590502087  0.9266206491148240
  0.6483577313859210  0.1049594464755333  0.7033068361512137
  0.2372080935594705  0.9599631084523469  0.6981583077172623
  0.6994277563976501  0.3509528997748244  0.8149812553053990
  0.9014853691369915  0.0821955239252973  0.5084442059680191
  0.6463029979096249  0.9323198068924180  0.3309027847982767
  0.6703378749622477  0.8207551022358444  0.1112587096158952
  0.6924072339607451  0.7973787747526450  0.6665809056948602
  0.6660072373839018  0.5931859111735823  0.3368365070376061
  0.1740118629887150  0.3514582144949351 -0.0081556465736150
 
  0.00000000E+00  0.00000000E+00  0.00000000E+00
  0.00000000E+00  0.00000000E+00  0.00000000E+00
  0.00000000E+00  0.00000000E+00  0.00000000E+00
  0.00000000E+00  0.00000000E+00  0.00000000E+00
  0.00000000E+00  0.00000000E+00  0.00000000E+00
  0.00000000E+00  0.00000000E+00  0.00000000E+00
  0.00000000E+00  0.00000000E+00  0.00000000E+00
  0.00000000E+00  0.00000000E+00  0.00000000E+00
  0.00000000E+00  0.00000000E+00  0.00000000E+00
  0.00000000E+00  0.00000000E+00  0.00000000E+00
  0.00000000E+00  0.00000000E+00  0.00000000E+00
  0.00000000E+00  0.00000000E+00  0.00000000E+00
  0.00000000E+00  0.00000000E+00  0.00000000E+00
  0.00000000E+00  0.00000000E+00  0.00000000E+00
  0.00000000E+00  0.00000000E+00  0.00000000E+00
  0.00000000E+00  0.00000000E+00  0.00000000E+00
  0.00000000E+00  0.00000000E+00  0.00000000E+00
  0.00000000E+00  0.00000000E+00  0.00000000E+00
  0.00000000E+00  0.00000000E+00  0.00000000E+00
  0.00000000E+00  0.00000000E+00  0.00000000E+00
  0.00000000E+00  0.00000000E+00  0.00000000E+00
  0.00000000E+00  0.00000000E+00  0.00000000E+00
  0.00000000E+00  0.00000000E+00  0.00000000E+00
