Sr1 Nb1 H22                             
   1.00000000000000     
     5.0096500350597388    0.6222134077849100    0.2072853015159253
    -0.6055352745317018    5.0510463934021033    0.4024986061043404
    -0.1315396052140185   -1.1555416511746903    6.5243753378231792
   H    Nb   H    Sr   H 
     2     1     5     1    15
Direct
  0.0654584216173364  0.7846417201149182  0.7390231933941090
  0.9004963971906252  0.7780342028456553  0.7355898549366977
  0.9855929197160380  0.9332053469812485  0.4746090396035306
  0.9885862610762197  0.5773452635494948  0.4093353583599019
  0.9806526683529350  0.2002002319058312  0.3111877105253109
 -0.0167495547037533  0.9603824408430545  0.1947148813229838
  0.0120100142913085  0.7907152315739193  0.2037939980002654
  0.7733021544044152  0.1844258546344918  0.6091186444798157
  0.4825360073325725  0.4089713280347599  0.3970031084278924
  0.3198400245726258  0.0481586527102007  0.0409988073171223
  0.5651041859217731  0.8114123360530007  0.6361172994477153
  0.6583424390282175  0.9159850135676957  0.3622598779267659
  0.0411392658439314  0.5073876542456888  0.0197786930327443
  0.0394562564883590  0.4359880206852457  0.9160756035014462
  0.1699859180211930  0.1942929986826622  0.6209351541883957
  0.2795021210443702  0.1033785273997437  0.9446318505569609
  0.7582952165307073  0.1231877787245922  0.0242756797570552
  0.5184406639098442  0.6111829348033904  0.0384860123659138
  0.5747579659774352  0.7095181028215519  0.1191920929569496
  0.4108920513674081  0.4243717693072229  0.7865829136266922
  0.5588593770807930  0.3992934859440764  0.7772769728026107
  0.3150476467482556 -0.0651015531451146  0.3665146381559390
  0.7557328272897300  0.1145882990208024  0.9110718268088632
  0.3988657508976679  0.8122763586958646  0.6371967885043118
 
  0.00000000E+00  0.00000000E+00  0.00000000E+00
  0.00000000E+00  0.00000000E+00  0.00000000E+00
  0.00000000E+00  0.00000000E+00  0.00000000E+00
  0.00000000E+00  0.00000000E+00  0.00000000E+00
  0.00000000E+00  0.00000000E+00  0.00000000E+00
  0.00000000E+00  0.00000000E+00  0.00000000E+00
  0.00000000E+00  0.00000000E+00  0.00000000E+00
  0.00000000E+00  0.00000000E+00  0.00000000E+00
  0.00000000E+00  0.00000000E+00  0.00000000E+00
  0.00000000E+00  0.00000000E+00  0.00000000E+00
  0.00000000E+00  0.00000000E+00  0.00000000E+00
  0.00000000E+00  0.00000000E+00  0.00000000E+00
  0.00000000E+00  0.00000000E+00  0.00000000E+00
  0.00000000E+00  0.00000000E+00  0.00000000E+00
  0.00000000E+00  0.00000000E+00  0.00000000E+00
  0.00000000E+00  0.00000000E+00  0.00000000E+00
  0.00000000E+00  0.00000000E+00  0.00000000E+00
  0.00000000E+00  0.00000000E+00  0.00000000E+00
  0.00000000E+00  0.00000000E+00  0.00000000E+00
  0.00000000E+00  0.00000000E+00  0.00000000E+00
  0.00000000E+00  0.00000000E+00  0.00000000E+00
  0.00000000E+00  0.00000000E+00  0.00000000E+00
  0.00000000E+00  0.00000000E+00  0.00000000E+00
  0.00000000E+00  0.00000000E+00  0.00000000E+00
