Sr5 Nb1 H15                             
   1.00000000000000     
     6.6897470045759668   -0.0253455867362627   -0.0047243919059996
     1.2070133947316311    6.5445813098625987    0.0110768550746154
     1.9802332082874576    2.8828242441106195    5.6390876628131785
   Nb   H    Sr   H    Sr   H    Sr   H    Sr   H 
     1    10     1     1     2     1     1     2     1     1
Direct
  0.5750683838081955  0.1704858662706057  0.1735662313380971
  0.4349105508024904  0.9223945268663375  0.4282295195816833
  0.4183299934244962  0.0547587932357218  0.0701985032941650
  0.7068516401088154  0.9091135611433908  0.1547826499865353
  0.7280496842198100  0.0045345481792232  0.4010328384744830
  0.9015869057234821  0.2037184718187062  0.0523571249219730
  0.6941106793419674  0.1979013672278264  0.8483337609981720
  0.4768546149445794  0.2072332070015448  0.4767696510566703
  0.4681332994526593  0.4608541219438611  0.9249267038868769
  0.6719228569232810  0.4675178734685894  0.1441886681178587
  0.2774984136454497  0.2260628522513910  0.2616673464684992
  0.0751744670710336  0.5396380853003294  0.9660982583496598
  0.9740734199740403  0.5288625576176084  0.3358122225545784
  0.0789141203847651  0.8720913091295065  0.3246327463943313
  0.6084642011641016  0.5249548484521711  0.5040602246861104
  0.2474173829875990  0.5458783936782887  0.5906799999804953
  0.0867653350171752  0.2212369586942820  0.6624020560310007
  0.9626853046535876  0.9081393121626574  0.6842433234007024
  0.8548587673696280  0.5932720599451013  0.6787285842552233
  0.5946862480060070  0.8538575246201060  0.8197784999629770
  0.2211997309768346  0.8602787609927430  0.9477700862599031
 
  0.00000000E+00  0.00000000E+00  0.00000000E+00
  0.00000000E+00  0.00000000E+00  0.00000000E+00
  0.00000000E+00  0.00000000E+00  0.00000000E+00
  0.00000000E+00  0.00000000E+00  0.00000000E+00
  0.00000000E+00  0.00000000E+00  0.00000000E+00
  0.00000000E+00  0.00000000E+00  0.00000000E+00
  0.00000000E+00  0.00000000E+00  0.00000000E+00
  0.00000000E+00  0.00000000E+00  0.00000000E+00
  0.00000000E+00  0.00000000E+00  0.00000000E+00
  0.00000000E+00  0.00000000E+00  0.00000000E+00
  0.00000000E+00  0.00000000E+00  0.00000000E+00
  0.00000000E+00  0.00000000E+00  0.00000000E+00
  0.00000000E+00  0.00000000E+00  0.00000000E+00
  0.00000000E+00  0.00000000E+00  0.00000000E+00
  0.00000000E+00  0.00000000E+00  0.00000000E+00
  0.00000000E+00  0.00000000E+00  0.00000000E+00
  0.00000000E+00  0.00000000E+00  0.00000000E+00
  0.00000000E+00  0.00000000E+00  0.00000000E+00
  0.00000000E+00  0.00000000E+00  0.00000000E+00
  0.00000000E+00  0.00000000E+00  0.00000000E+00
  0.00000000E+00  0.00000000E+00  0.00000000E+00
