Sr5 Nb1 H15                             
   1.00000000000000     
     6.6901226325070731   -0.0256155176186568   -0.0043582579434904
     1.2068228927876319    6.5460356860107698    0.0106253889761088
     1.9805374116015666    2.8829616948805450    5.6393476545905337
   Nb   H    Sr   H    Sr   H    Sr   H    Sr   H 
     1    10     1     1     2     1     1     2     1     1
Direct
  0.5750582825428857  0.1712543345030413  0.1733010145482937
  0.4348244816012192  0.9222597575143874  0.4283950089294269
  0.4182617341385382  0.0547946271632972  0.0701284100759835
  0.7068420463378333  0.9089159514361902  0.1547610607923433
  0.7280212647877770  0.0043245305254944  0.4011195827229843
  0.9014692600697805  0.2035818638374683  0.0524507942512547
  0.6942110438626592  0.1978981135727587  0.8483012769498962
  0.4769410772055434  0.2072489136123301  0.4766995287813200
  0.4681469362050610  0.4608635126148836  0.9249056086280485
  0.6720303608132990  0.4674263377344311  0.1441828256584403
  0.2775270323697224  0.2261438259178241  0.2616134051572193
  0.0751468033111895  0.5395921409737268  0.9661523861458453
  0.9739773619245351  0.5288752115953942  0.3358064977864351
  0.0789142307570505  0.8720722142309396  0.3246689703482137
  0.6084552187165709  0.5249631397687532  0.5040957162945012
  0.2474449543875571  0.5458575004661838  0.5906694403444236
  0.0867902260399180  0.2212129683972624  0.6623430238146090
  0.9626733183846320  0.9081070783944440  0.6842977432805916
  0.8548860465254078  0.5932790909648352  0.6787750670373197
  0.5947050467781081  0.8538067344562600  0.8198504098782984
  0.2212292732407176  0.8603071523200718  0.9477412285745476
 
  0.00000000E+00  0.00000000E+00  0.00000000E+00
  0.00000000E+00  0.00000000E+00  0.00000000E+00
  0.00000000E+00  0.00000000E+00  0.00000000E+00
  0.00000000E+00  0.00000000E+00  0.00000000E+00
  0.00000000E+00  0.00000000E+00  0.00000000E+00
  0.00000000E+00  0.00000000E+00  0.00000000E+00
  0.00000000E+00  0.00000000E+00  0.00000000E+00
  0.00000000E+00  0.00000000E+00  0.00000000E+00
  0.00000000E+00  0.00000000E+00  0.00000000E+00
  0.00000000E+00  0.00000000E+00  0.00000000E+00
  0.00000000E+00  0.00000000E+00  0.00000000E+00
  0.00000000E+00  0.00000000E+00  0.00000000E+00
  0.00000000E+00  0.00000000E+00  0.00000000E+00
  0.00000000E+00  0.00000000E+00  0.00000000E+00
  0.00000000E+00  0.00000000E+00  0.00000000E+00
  0.00000000E+00  0.00000000E+00  0.00000000E+00
  0.00000000E+00  0.00000000E+00  0.00000000E+00
  0.00000000E+00  0.00000000E+00  0.00000000E+00
  0.00000000E+00  0.00000000E+00  0.00000000E+00
  0.00000000E+00  0.00000000E+00  0.00000000E+00
  0.00000000E+00  0.00000000E+00  0.00000000E+00
