H20                                     
   1.00000000000000     
     2.8405910230455929    0.0125583403978124    0.0078767712163799
     0.1160576024934218    6.0279666749403455   -0.2333745088756186
     0.1653773663927634   -0.1960163477596838    6.7617355981397633
   H 
    20
Direct
  0.3005242350106405  0.1797642388626839  0.0639089079623024
  0.9662596432267287  0.1774418695945971  0.0632993722601241
  0.6312476654053214  0.1914081522218747  0.0595432509997466
  0.0240238071297280  0.8357294847199680  0.5697049436985206
  0.1644836783569628  0.8395237504244771  0.4754743959959575
  0.4956388910647734  0.8594143210009244  0.8161937673800753
  0.6882470364735702  0.8676490038486985  0.8889504053741071
  0.9331883119223990  0.1926240667275153  0.7042259375538241
  0.2679002437797302  0.1930862727240505  0.7045383895128087
  0.7141613782126663  0.1645069945616970  0.3647762630095278
  0.5086191743217149  0.1059229108211798  0.4051661252708409
  0.6015299372500109  0.1895091247548011  0.7103588340713850
  0.1747142887586535  0.4337241490812961  0.3589099289664373
  0.0458949515457248  0.4906139460666940  0.2815050358793639
  0.5575600785854664  0.7228676720101368  0.2078825520482435
  0.6335056587198148  0.8395235693533146  0.1998948308054734
  0.6266556811108739  0.5202813004882924  0.6756638177787166
  0.5744846229497957  0.5584670222498230  0.5762672876515476
  0.1898164121397526  0.5835418183123845  0.9735434214432213
  0.0254833040356574  0.5013513321755970  0.9277115323377823
 
  0.00000000E+00  0.00000000E+00  0.00000000E+00
  0.00000000E+00  0.00000000E+00  0.00000000E+00
  0.00000000E+00  0.00000000E+00  0.00000000E+00
  0.00000000E+00  0.00000000E+00  0.00000000E+00
  0.00000000E+00  0.00000000E+00  0.00000000E+00
  0.00000000E+00  0.00000000E+00  0.00000000E+00
  0.00000000E+00  0.00000000E+00  0.00000000E+00
  0.00000000E+00  0.00000000E+00  0.00000000E+00
  0.00000000E+00  0.00000000E+00  0.00000000E+00
  0.00000000E+00  0.00000000E+00  0.00000000E+00
  0.00000000E+00  0.00000000E+00  0.00000000E+00
  0.00000000E+00  0.00000000E+00  0.00000000E+00
  0.00000000E+00  0.00000000E+00  0.00000000E+00
  0.00000000E+00  0.00000000E+00  0.00000000E+00
  0.00000000E+00  0.00000000E+00  0.00000000E+00
  0.00000000E+00  0.00000000E+00  0.00000000E+00
  0.00000000E+00  0.00000000E+00  0.00000000E+00
  0.00000000E+00  0.00000000E+00  0.00000000E+00
  0.00000000E+00  0.00000000E+00  0.00000000E+00
  0.00000000E+00  0.00000000E+00  0.00000000E+00
