Sr1 Nb4 H14                             
   1.00000000000000     
     4.4087026274685757   -0.0789779738586748   -0.0687497740406375
     0.0572049988333595    5.4528338472415792   -1.1961045592736774
    -0.1196921459258697   -1.2646634124458458    6.9881416777238110
   Nb   H    Nb   H    Nb   H    Sr
     2     4     1     9     1     1     1
Direct
  0.6486918322205854  0.5595721379160220  0.6168843475556016
  0.6483185530942888  0.0565502547580730  0.6171018239625744
  0.3960948769470471  0.7005740078691607  0.8534158283545041
  0.9572905561556421  0.1014896905375507  0.8261519598395820
  0.9586549004322821  0.7212497083615123  0.8240620632759852
  0.3899051465031035  0.1479790158394169  0.8522876286919749
  0.1585798164765059  0.6728684150874963  0.3462481221253395
  0.8788476207094119  0.9434094978211350  0.3780118386429570
  0.0581835059164891  0.7504343364831143  0.1092128721216155
  0.3604674903951158 -0.0061713096609796  0.3882999915499582
  0.9697607893694582  0.2983056342321055  0.5960405728379284
  0.7080360213289910  0.4225571346218019  0.8505650301247725
  0.3606833716247786  0.3947746965696690  0.3900602646824485
  0.8724902380926588  0.4345458666358392  0.3753954343196504
  0.3270937562406125  0.8099524703767749  0.6222124125900893
  0.0555192557583678  0.3608846956377843  0.1130774011705165
  0.1420238503834554  0.4375992720691699  0.8777612993238334
  0.4369457934290443  0.5616007304528147  0.1258380078491950
  0.6407306249221444  0.0576297443915404  0.1172751009814885
 
  0.00000000E+00  0.00000000E+00  0.00000000E+00
  0.00000000E+00  0.00000000E+00  0.00000000E+00
  0.00000000E+00  0.00000000E+00  0.00000000E+00
  0.00000000E+00  0.00000000E+00  0.00000000E+00
  0.00000000E+00  0.00000000E+00  0.00000000E+00
  0.00000000E+00  0.00000000E+00  0.00000000E+00
  0.00000000E+00  0.00000000E+00  0.00000000E+00
  0.00000000E+00  0.00000000E+00  0.00000000E+00
  0.00000000E+00  0.00000000E+00  0.00000000E+00
  0.00000000E+00  0.00000000E+00  0.00000000E+00
  0.00000000E+00  0.00000000E+00  0.00000000E+00
  0.00000000E+00  0.00000000E+00  0.00000000E+00
  0.00000000E+00  0.00000000E+00  0.00000000E+00
  0.00000000E+00  0.00000000E+00  0.00000000E+00
  0.00000000E+00  0.00000000E+00  0.00000000E+00
  0.00000000E+00  0.00000000E+00  0.00000000E+00
  0.00000000E+00  0.00000000E+00  0.00000000E+00
  0.00000000E+00  0.00000000E+00  0.00000000E+00
  0.00000000E+00  0.00000000E+00  0.00000000E+00
