Sr2 Nb1 H7                              
   1.00000000000000     
     3.7184665765566733   -0.0375620579885239    0.3231783153160349
    -0.0360884081442302    5.3078221365849423    0.9905267430367596
     1.2893918439385297    1.6053682774663161    6.1062410718229936
   Sr   Nb   H 
     2     1     7
Direct
  0.1092014046138255  0.7985004724023718  0.2415968350512839
  0.4110055904816588  0.1120464570700044  0.6152143341917752
  0.7605109387915859  0.4206692140275692  0.9280290560078496
  0.6279958284085662  0.5254341146549695  0.2029897387356156
  0.2601456000127984  0.6183493859025246  0.9273237342090374
  0.2590057471818518  0.2704509883982051  0.9303808103457276
  0.7600128260812119  0.0765797302273284  0.9279849520251426
  0.9061224131158555  0.4131485133702320  0.6212813005650084
  0.6154560500393361  0.1059041070233188  0.2354659289679029
  0.8913136012732999  0.7999090169234805  0.6540913099006612
 
  0.00000000E+00  0.00000000E+00  0.00000000E+00
  0.00000000E+00  0.00000000E+00  0.00000000E+00
  0.00000000E+00  0.00000000E+00  0.00000000E+00
  0.00000000E+00  0.00000000E+00  0.00000000E+00
  0.00000000E+00  0.00000000E+00  0.00000000E+00
  0.00000000E+00  0.00000000E+00  0.00000000E+00
  0.00000000E+00  0.00000000E+00  0.00000000E+00
  0.00000000E+00  0.00000000E+00  0.00000000E+00
  0.00000000E+00  0.00000000E+00  0.00000000E+00
  0.00000000E+00  0.00000000E+00  0.00000000E+00
