Sr6 Nb1 H16                             
   1.00000000000000     
     7.2847007249085971   -0.8015239058631209    0.4043434688035995
    -2.0506253754356321    6.8219694009163430   -0.2642140051931507
    -2.9472199982972316   -1.8792809739638812    6.4804574438213436
   Sr   H    Sr   H    Sr   H    Nb   H    Sr   H    Sr   H 
     1     3     2     1     1     2     1     6     1     2     1     2
Direct
  0.1485126593641179  0.9721998444348042  0.3522032025084019
  0.0378800968814155  0.2237405891047907  0.5248101827832622
  0.5758641048363212  0.2687913005659069  0.5414797958230868
  0.3570554825219672  0.1697176221179424  0.1589041942298589
  0.0897320861525199  0.1101947468814257  0.8284035528199974
  0.1172170932200111  0.6054631655979631  0.6707553952824304
  0.0151956044412191  0.3983484441723472  0.8738489073351735
  0.6526206498698736  0.0641182301611618  0.3139076007067581
  0.6831097287411313  0.9297183740371000  0.7355690131136166
  0.9256602046257255  0.8133083149465387  0.5166632639689174
  0.6700434398092552  0.7564499312976988  0.9068115888513267
  0.3080909210029187  0.0103962482044757  0.7035350813542527
  0.4377632125727189  0.5918828861355984  0.6521414396687083
  0.4891500322160584  0.8783599695528074  0.9478628340852743
  0.3488839500785262  0.7647745988863284  0.3183102677437705
  0.8936964809215218  0.0489108233185601  0.0729174649216548
  0.8274462216034194  0.7112670825732723  0.7620190602676721
  0.6830842875059306  0.2780355494840292  0.9043240883194513
  0.8100450402557943  0.4222977339339988  0.2977839603608819
  0.4639762589171474  0.4962077969520623  0.9210921887493062
  0.5559314087129873  0.5521209814935906  0.3822033857368505
  0.7163794823580164  0.7825453313192898  0.1763140536486500
  0.8738335533913772  0.6763414348282992  0.0386644777207177
 
  0.00000000E+00  0.00000000E+00  0.00000000E+00
  0.00000000E+00  0.00000000E+00  0.00000000E+00
  0.00000000E+00  0.00000000E+00  0.00000000E+00
  0.00000000E+00  0.00000000E+00  0.00000000E+00
  0.00000000E+00  0.00000000E+00  0.00000000E+00
  0.00000000E+00  0.00000000E+00  0.00000000E+00
  0.00000000E+00  0.00000000E+00  0.00000000E+00
  0.00000000E+00  0.00000000E+00  0.00000000E+00
  0.00000000E+00  0.00000000E+00  0.00000000E+00
  0.00000000E+00  0.00000000E+00  0.00000000E+00
  0.00000000E+00  0.00000000E+00  0.00000000E+00
  0.00000000E+00  0.00000000E+00  0.00000000E+00
  0.00000000E+00  0.00000000E+00  0.00000000E+00
  0.00000000E+00  0.00000000E+00  0.00000000E+00
  0.00000000E+00  0.00000000E+00  0.00000000E+00
  0.00000000E+00  0.00000000E+00  0.00000000E+00
  0.00000000E+00  0.00000000E+00  0.00000000E+00
  0.00000000E+00  0.00000000E+00  0.00000000E+00
  0.00000000E+00  0.00000000E+00  0.00000000E+00
  0.00000000E+00  0.00000000E+00  0.00000000E+00
  0.00000000E+00  0.00000000E+00  0.00000000E+00
  0.00000000E+00  0.00000000E+00  0.00000000E+00
  0.00000000E+00  0.00000000E+00  0.00000000E+00
