Sr1 Nb1 H21                             
   1.00000000000000     
     5.2731892890084442   -0.5055517059609508   -0.2987944524562343
    -0.9428893182847420    5.5281361876950799   -0.0633123395937288
    -1.4907107690268830   -1.1422267608025427    6.9732952053751811
   Sr   Nb   H 
     1     1    21
Direct
  0.2094820749928140  0.3747600326616136  0.4623434414895756
  0.9224977591380101  0.8231306115688287  0.6602051756383940
  0.0242469368113224  0.6636806943108701  0.2011493056934280
  0.5987294814389025  0.7039169378150799  0.0321651965573746
  0.0624732591922006  0.6102857110960982  0.1149261827982297
  0.5993291766966667  0.9685124050004074  0.6467686115886234
  0.7303073653794682  0.0755540333137658  0.7226868715880277
  0.3461821570607130  0.3674461899078593  0.1179372979210058
  0.2228701005218345  0.2617770930634948  0.0612795214542862
  0.9171329605689517  0.9192782207726888  0.9091869711027611
  0.2794654374095525  0.9485196086307991  0.8403561368143683
  0.1263782409120997  0.1553769459410853  0.7267000061550933
  0.8609498426110073  0.9590498480759695  0.4435193755928842
  0.3540313637528980  0.0007055795328487  0.2558523732439207
  0.4906959285997963  0.0410635782599032  0.3318674383452434
  0.1734755245630757  0.7960873233128294  0.5286067769949816
  0.5934269775416231  0.7233336683989257  0.1355522916691285
  0.2399071371390914  0.7908287412760273  0.8362404738050579
  0.7285703539564404  0.2544049902005885  0.1385803589035157
  0.7730756450042678  0.1525149103466718  0.0876652155234586
  0.0075761072558434  0.5380126963775465  0.7119891357214428
  0.7154890311312850  0.5619618193198608  0.4421493182025889
  0.6334181383221267  0.6232793608162414  0.7231185231966225
 
  0.00000000E+00  0.00000000E+00  0.00000000E+00
  0.00000000E+00  0.00000000E+00  0.00000000E+00
  0.00000000E+00  0.00000000E+00  0.00000000E+00
  0.00000000E+00  0.00000000E+00  0.00000000E+00
  0.00000000E+00  0.00000000E+00  0.00000000E+00
  0.00000000E+00  0.00000000E+00  0.00000000E+00
  0.00000000E+00  0.00000000E+00  0.00000000E+00
  0.00000000E+00  0.00000000E+00  0.00000000E+00
  0.00000000E+00  0.00000000E+00  0.00000000E+00
  0.00000000E+00  0.00000000E+00  0.00000000E+00
  0.00000000E+00  0.00000000E+00  0.00000000E+00
  0.00000000E+00  0.00000000E+00  0.00000000E+00
  0.00000000E+00  0.00000000E+00  0.00000000E+00
  0.00000000E+00  0.00000000E+00  0.00000000E+00
  0.00000000E+00  0.00000000E+00  0.00000000E+00
  0.00000000E+00  0.00000000E+00  0.00000000E+00
  0.00000000E+00  0.00000000E+00  0.00000000E+00
  0.00000000E+00  0.00000000E+00  0.00000000E+00
  0.00000000E+00  0.00000000E+00  0.00000000E+00
  0.00000000E+00  0.00000000E+00  0.00000000E+00
  0.00000000E+00  0.00000000E+00  0.00000000E+00
  0.00000000E+00  0.00000000E+00  0.00000000E+00
  0.00000000E+00  0.00000000E+00  0.00000000E+00
