Sr2 Nb1 H19                             
   1.00000000000000     
     5.7952959133161190    0.5888094481422808    0.2227892803519640
     1.5612228381292215    5.9954726466209651   -0.2883450122723636
     1.6795830809674346    0.7027258203726754    6.3678163323403458
   Sr   Nb   H 
     2     1    19
Direct
  0.2180213302362295  0.2360785022084917  0.8722702540022618
  0.3046543673418962  0.6200366227459932  0.2884141148467543
  0.6401437029981327  0.5802205053148687  0.7341683688922310
  0.5031034445251897  0.0758072357725399  0.4798318417545301
  0.6045635977059477  0.7461569741792899  0.4825530724276388
  0.4222642411854078  0.1925111026275448  0.4565656448139894
  0.1026429837040995  0.0224360546157204  0.4867676113616057
  0.0284766430267277  0.9560531066386991  0.5637036540804388
  0.9019120528824829  0.9750425417854799  0.1428280425346352
  0.7360919751297507  0.3427876747259431  0.5321805755566165
  0.9115336171019619  0.0525985634277888  0.2171705978785926
  0.8287374739910355  0.4199256991684518  0.4550353734959782
  0.4394932274157564  0.0421668154287210  0.1723352273672686
  0.4646745316498516  0.4365916697888280  0.9469041173994683
  0.7246470802652675  0.5909120570277667  0.9834118351640174
  0.8148708366599124  0.2917097656430691  0.8038033555790047
  0.1303492971297166  0.3425283952703807  0.2229486723163212
  0.6867161435723890  0.8571334821574564  0.7394579582623250
 -0.0106998421316496  0.5385353056423060  0.6246983014595509
  0.5362512054361277  0.9463378860256985  0.0985269935110121
  0.3344119604272692  0.7942013465591024  0.8915373304847726
  0.3811211297464964  0.5373746932458696  0.6545910568109763
 
  0.00000000E+00  0.00000000E+00  0.00000000E+00
  0.00000000E+00  0.00000000E+00  0.00000000E+00
  0.00000000E+00  0.00000000E+00  0.00000000E+00
  0.00000000E+00  0.00000000E+00  0.00000000E+00
  0.00000000E+00  0.00000000E+00  0.00000000E+00
  0.00000000E+00  0.00000000E+00  0.00000000E+00
  0.00000000E+00  0.00000000E+00  0.00000000E+00
  0.00000000E+00  0.00000000E+00  0.00000000E+00
  0.00000000E+00  0.00000000E+00  0.00000000E+00
  0.00000000E+00  0.00000000E+00  0.00000000E+00
  0.00000000E+00  0.00000000E+00  0.00000000E+00
  0.00000000E+00  0.00000000E+00  0.00000000E+00
  0.00000000E+00  0.00000000E+00  0.00000000E+00
  0.00000000E+00  0.00000000E+00  0.00000000E+00
  0.00000000E+00  0.00000000E+00  0.00000000E+00
  0.00000000E+00  0.00000000E+00  0.00000000E+00
  0.00000000E+00  0.00000000E+00  0.00000000E+00
  0.00000000E+00  0.00000000E+00  0.00000000E+00
  0.00000000E+00  0.00000000E+00  0.00000000E+00
  0.00000000E+00  0.00000000E+00  0.00000000E+00
  0.00000000E+00  0.00000000E+00  0.00000000E+00
  0.00000000E+00  0.00000000E+00  0.00000000E+00
