Sr2 Nb1 H19
1.0
5.556948 0.543245 0.238040
1.480167 5.661582 -0.213902
1.628106 0.722882 6.150594
Sr Nb H
2 1 19
direct
0.218924 0.226593 0.872266 Sr
0.302173 0.627599 0.290596 Sr
0.641044 0.583880 0.733945 Nb
0.508351 0.069952 0.478866 H
0.607692 0.754879 0.469084 H
0.421852 0.199078 0.454001 H
0.104904 0.028035 0.485533 H
0.025426 0.955817 0.568246 H
0.901029 0.971360 0.140314 H
0.737010 0.337250 0.527602 H
0.909447 0.053418 0.217889 H
0.834150 0.414176 0.446018 H
0.435981 0.046164 0.175376 H
0.462596 0.428178 0.956038 H
0.734715 0.590071 0.990983 H
0.813469 0.275209 0.806276 H
0.121940 0.339700 0.228958 H
0.690644 0.876320 0.737303 H
0.000997 0.537611 0.623165 H
0.539038 0.945315 0.098075 H
0.320509 0.795104 0.894985 H
0.372090 0.541437 0.654185 H
