Sr1 Nb1 H12                             
   1.00000000000000     
     4.9748917638478218   -0.4055817601767450    0.3238053528916372
     0.4635338563265871    4.0990720449167917   -0.4418722375882356
     1.5644988126230412    0.8770124845255139    5.5760642861052467
   H    Nb   H    Sr
     6     1     6     1
Direct
  0.1119210569201455 -0.0054259907217293  0.9605454054691689
  0.1438052198079496  0.1224105853318022  0.8553890386924363
  0.0846511646309010  0.5277309885650302  0.1894403893955803
  0.1964361148584829  0.3980412624396763  0.1147111984180750
  0.5554188913563672  0.6909477701106870  0.0195787063084506
  0.7079835155485119  0.2961044705143553  0.1592910993783016
  0.3951849886844538  0.5524833709680912  0.3346368803889398
  0.5230625025213581  0.4009698445965555  0.5860953215368246
  0.6084003811371063  0.1261425441814952  0.2209807334298951
  0.1650103265722651  0.8863933295246433  0.2972071467574057
  0.7390475265513576  0.7172907464213915  0.2900455409862294
  0.0574021241574499  0.4098657515631728  0.5763943295931301
  0.3128339003660261  0.8084498224794027  0.5779986152139014
  0.7785332868876331  0.9234715040254227  0.6471235944316723
 
  0.00000000E+00  0.00000000E+00  0.00000000E+00
  0.00000000E+00  0.00000000E+00  0.00000000E+00
  0.00000000E+00  0.00000000E+00  0.00000000E+00
  0.00000000E+00  0.00000000E+00  0.00000000E+00
  0.00000000E+00  0.00000000E+00  0.00000000E+00
  0.00000000E+00  0.00000000E+00  0.00000000E+00
  0.00000000E+00  0.00000000E+00  0.00000000E+00
  0.00000000E+00  0.00000000E+00  0.00000000E+00
  0.00000000E+00  0.00000000E+00  0.00000000E+00
  0.00000000E+00  0.00000000E+00  0.00000000E+00
  0.00000000E+00  0.00000000E+00  0.00000000E+00
  0.00000000E+00  0.00000000E+00  0.00000000E+00
  0.00000000E+00  0.00000000E+00  0.00000000E+00
  0.00000000E+00  0.00000000E+00  0.00000000E+00
