Sr2 Nb1 H8
1.0
3.587244 0.351420 0.045348
-1.188105 5.562406 -0.590135
-0.706135 -3.173253 6.181218
Sr Nb H
2 1 8
direct
0.797103 0.912842 0.202627 Sr
0.382642 0.641711 0.594841 Sr
0.175425 0.279098 0.953297 Nb
0.643982 0.414017 0.921122 H
0.182871 0.583887 0.911930 H
0.575152 0.103994 0.953060 H
0.003207 0.908663 0.864888 H
0.256438 0.240838 0.199176 H
0.277630 0.633569 0.236653 H
0.796502 0.351263 0.491290 H
0.063288 0.031128 0.620270 H
