Sr2 Nb1 H7                              
   1.00000000000000     
     3.6925413086777459    0.0895905793950748   -0.0432018343725346
     1.7037114377244262    5.9104337465727248   -0.1814228179968921
     1.8894740755915751    1.6625044397535487    5.6188186298067668
   H    Nb   H    Sr   H    Sr   H 
     3     1     1     1     1     1     2
Direct
  0.6876998492852225  0.0217258388051171  0.3491565850303097
  0.6547843520637097  0.3606660252653138  0.0882007419232356
  0.9938333143042749  0.3578008210140748  0.4078319656201655
  0.5047488769745805  0.3154592465860236  0.4280886880905730
  0.3567011272933932  0.6550378408442642  0.3818255069735761
  0.3170248264506245  0.0447378409387650  0.0754566284976713
  0.0056877815055202  0.8164736325103696  0.9293134331751539
  0.6896097931400281  0.6690904345458254  0.6982215781045171
  0.5593083615874808  0.0687069016865993  0.6753087658982837
  0.3117517173951594  0.3957214178036436  0.7212401066865344
 
  0.00000000E+00  0.00000000E+00  0.00000000E+00
  0.00000000E+00  0.00000000E+00  0.00000000E+00
  0.00000000E+00  0.00000000E+00  0.00000000E+00
  0.00000000E+00  0.00000000E+00  0.00000000E+00
  0.00000000E+00  0.00000000E+00  0.00000000E+00
  0.00000000E+00  0.00000000E+00  0.00000000E+00
  0.00000000E+00  0.00000000E+00  0.00000000E+00
  0.00000000E+00  0.00000000E+00  0.00000000E+00
  0.00000000E+00  0.00000000E+00  0.00000000E+00
  0.00000000E+00  0.00000000E+00  0.00000000E+00
