Sr2 Nb1 H7                              
   1.00000000000000     
     3.6932990169953692    0.0896165984966759   -0.0410241797147355
     1.7041018308676599    5.9080294098268542   -0.1774161442986787
     1.8931462404699317    1.6647408863516249    5.6201131425777060
   H    Nb   H    Sr   H    Sr   H 
     3     1     1     1     1     1     2
Direct
  0.6876331925505256  0.0222210474503670  0.3494707758778557
  0.6559467474082691  0.3600992181584791  0.0872013606248987
  0.9942358505363821  0.3560819149572245  0.4089040711009813
  0.5047654598373941  0.3157119621748904  0.4279415043793197
  0.3558905342480490  0.6556625762756588  0.3820756926067511
  0.3172609342896326  0.0445620223151761  0.0755534896096369
  0.0048750258824473  0.8174469925933405  0.9294140105618208
  0.6893187389861337  0.6691510047921495  0.6978144962824184
  0.5596778729800594  0.0685771953349766  0.6752923507098603
  0.3115456432810938  0.3959060659477489  0.7209762482464701
 
  0.00000000E+00  0.00000000E+00  0.00000000E+00
  0.00000000E+00  0.00000000E+00  0.00000000E+00
  0.00000000E+00  0.00000000E+00  0.00000000E+00
  0.00000000E+00  0.00000000E+00  0.00000000E+00
  0.00000000E+00  0.00000000E+00  0.00000000E+00
  0.00000000E+00  0.00000000E+00  0.00000000E+00
  0.00000000E+00  0.00000000E+00  0.00000000E+00
  0.00000000E+00  0.00000000E+00  0.00000000E+00
  0.00000000E+00  0.00000000E+00  0.00000000E+00
  0.00000000E+00  0.00000000E+00  0.00000000E+00
