pymatgen with grid density = 2746 / number of atoms
0
Gamma
8 4 3
