Sr1 Nb1 H19                             
   1.00000000000000     
     5.6787616933232243   -0.4811979541345327   -0.7879355662337463
     1.7086113858527703    5.1247303669127726   -0.1321153534784260
    -0.8230556516100432    0.2317137869335228    5.2705453983443906
   H    Sr   H    Nb   H 
     8     1     7     1     4
Direct
 -0.0093446198701609  0.6701918814520970  0.0918288874276551
  0.8806682360567869  0.7523056338810314  0.1291180248455194
  0.2202113311654749  0.8390796264975749  0.4054476264388542
  0.2837208720570630  0.8469093392314808  0.5503350234632369
  0.0946522876943565  0.8108376388337806  0.8154226982721972
 -0.0249308090732161  0.8875881431406407  0.7224136643139069
  0.3754967857852404  0.4953371666708972  0.8658684601545363
  0.7271325237252100  0.6666249286646979  0.6921541909169509
  0.0867259678135768  0.3818474873296312  0.4849709913222741
  0.6562959991942078  0.5886356873130774  0.5919456763620123
  0.8104859886901191  0.0886805163519752  0.3459190569653877
  0.5075450036163992  0.8639379259985157  0.1245768511450492
  0.4855244986030564  0.9185894111144279  0.2623578140754917
  0.7868460177233377  0.2093723715588282  0.9583775209296498
  0.6877054060088614  0.1517470630316710  0.8451693407539782
  0.6794041793118474  0.4774928162228786  0.1806790265527667
  0.5038745544796346  0.2348748788246648  0.1137536058447568
  0.3432454394355628  0.5163517698372442  0.2267005730440237
  0.3898041966831290  0.0782022341957053  0.8149652843088112
  0.1675054699225589  0.2430252153943507  0.0565051012875182
  0.4867906709769725  0.1861352644548639  0.4412905815754239
 
  0.00000000E+00  0.00000000E+00  0.00000000E+00
  0.00000000E+00  0.00000000E+00  0.00000000E+00
  0.00000000E+00  0.00000000E+00  0.00000000E+00
  0.00000000E+00  0.00000000E+00  0.00000000E+00
  0.00000000E+00  0.00000000E+00  0.00000000E+00
  0.00000000E+00  0.00000000E+00  0.00000000E+00
  0.00000000E+00  0.00000000E+00  0.00000000E+00
  0.00000000E+00  0.00000000E+00  0.00000000E+00
  0.00000000E+00  0.00000000E+00  0.00000000E+00
  0.00000000E+00  0.00000000E+00  0.00000000E+00
  0.00000000E+00  0.00000000E+00  0.00000000E+00
  0.00000000E+00  0.00000000E+00  0.00000000E+00
  0.00000000E+00  0.00000000E+00  0.00000000E+00
  0.00000000E+00  0.00000000E+00  0.00000000E+00
  0.00000000E+00  0.00000000E+00  0.00000000E+00
  0.00000000E+00  0.00000000E+00  0.00000000E+00
  0.00000000E+00  0.00000000E+00  0.00000000E+00
  0.00000000E+00  0.00000000E+00  0.00000000E+00
  0.00000000E+00  0.00000000E+00  0.00000000E+00
  0.00000000E+00  0.00000000E+00  0.00000000E+00
  0.00000000E+00  0.00000000E+00  0.00000000E+00
