Sr1 Nb1 H8
1.0
3.150745 -0.477779 -0.368468
0.788749 5.395628 -0.238288
0.798887 1.362035 4.875119
Sr Nb H
1 1 8
direct
0.495421 0.997434 0.265564 Sr
0.995508 0.587620 0.886281 Nb
0.000601 0.314506 0.416323 H
0.000495 0.205829 0.550570 H
0.494080 0.465213 0.104256 H
0.993309 0.698311 0.188624 H
0.995894 0.237199 0.964601 H
0.993922 0.839307 0.582146 H
0.497190 0.519061 0.685140 H
0.493759 0.812475 0.863910 H
