Sr1 Nb2 H16                             
   1.00000000000000     
     5.8614209834528745   -0.3962355658800695   -0.0512097585080200
    -2.2224675578554898    5.4306949485339215   -0.3432829766140793
    -0.3725173577820963   -2.9277376139091049    5.5979616033903543
   H    Nb   H    Nb   H    Sr
     2     1     8     1     6     1
Direct
  0.7611108929777290  0.0955147361111829  0.7712512274817400
  0.6437987677070849  0.9809187593373742  0.6537851914080570
  0.4015380448051460  0.1233378797964870  0.1074047500999422
  0.5284539186919701  0.5413421198519180  0.3190249231870062
  0.2065334625288597  0.8583264870597609  0.7947660293260747
  0.6876845199960941  0.5180325482439964  0.6304745012576501
  0.8199416113358352  0.5982557414457268  0.7255536024209863
  0.7345348020879906  0.8005059065411341  0.1452813489387417
  0.1462030731994165  0.7467677944510457  0.0689154966849585
  0.7571392741949854  0.3189227939100279  0.1815705179487242
  0.1440454717486780  0.2210014222111529  0.0426249842280988
  0.3862761884117020  0.6118232083803116  0.0949480972417003
  0.2580490048988702  0.6575138857762137  0.3519150544545416
  0.2598997846705711  0.2046274062072792  0.3571156010308190
  0.4979462439595927  0.8317414460299356  0.9368345422983073
  0.5371227378790031  0.0316706412191204  0.3241171030801439
  0.4920127987603574  0.3234192497754450  0.9226627653841367
  0.1764371545581691  0.3896267410781361  0.7818624656567940
  0.0137962475879481  0.8825522325737422  0.4873747978715975
 
  0.00000000E+00  0.00000000E+00  0.00000000E+00
  0.00000000E+00  0.00000000E+00  0.00000000E+00
  0.00000000E+00  0.00000000E+00  0.00000000E+00
  0.00000000E+00  0.00000000E+00  0.00000000E+00
  0.00000000E+00  0.00000000E+00  0.00000000E+00
  0.00000000E+00  0.00000000E+00  0.00000000E+00
  0.00000000E+00  0.00000000E+00  0.00000000E+00
  0.00000000E+00  0.00000000E+00  0.00000000E+00
  0.00000000E+00  0.00000000E+00  0.00000000E+00
  0.00000000E+00  0.00000000E+00  0.00000000E+00
  0.00000000E+00  0.00000000E+00  0.00000000E+00
  0.00000000E+00  0.00000000E+00  0.00000000E+00
  0.00000000E+00  0.00000000E+00  0.00000000E+00
  0.00000000E+00  0.00000000E+00  0.00000000E+00
  0.00000000E+00  0.00000000E+00  0.00000000E+00
  0.00000000E+00  0.00000000E+00  0.00000000E+00
  0.00000000E+00  0.00000000E+00  0.00000000E+00
  0.00000000E+00  0.00000000E+00  0.00000000E+00
  0.00000000E+00  0.00000000E+00  0.00000000E+00
