H13
1.0
2.821709 -0.035911 -0.124275
-0.093655 4.682073 -0.014861
-0.400381 -0.725313 5.856030
H
13
direct
0.376975 0.129974 0.030680 H
0.482427 -0.000123 0.973392 H
0.858863 0.400664 0.389232 H
0.194887 0.401196 0.399956 H
0.587639 0.573110 0.033528 H
0.359709 0.581225 0.086698 H
0.904495 0.929075 0.330389 H
0.155627 0.913119 0.305206 H
0.529920 0.382120 0.401333 H
0.037721 0.388011 0.759668 H
0.836103 0.279850 0.752449 H
0.531864 0.799169 0.640946 H
0.794266 0.830190 0.665480 H
