Sr2 Nb1 H10                             
   1.00000000000000     
     4.8422566411932868    0.0204606491476079    0.3329893640020881
     0.1482094878006310    5.0230742830213950    0.9735389967920374
     0.4541580482157869    1.3694041107799693    6.0507556901108659
   H    Sr   H    Nb   H    Sr
     3     1     3     1     4     1
Direct
  0.1401254330696879  0.2327462741294173  0.6227677434915951
  0.0914611899305811  0.0996001603714904  0.7372705047815414
  0.8667407841374536  0.4712884381668920  0.9825497318198572
  0.0594519622300907  0.0905502927863530  0.2921646282785022
  0.3566984114461048  0.9666347627965908  0.0082229126724972
  0.8223871528294334  0.0019783060168090  0.0236098451969108
  0.6603274663117246  0.8493983328692004  0.7739084422308062
  0.6103784920665605  0.6745048255534222  0.1135833852112879
  0.4041169855255103  0.7134885104080162  0.3855156340498889
  0.3499961460384306  0.5020340033713243  0.0157685039051243
  0.8772115623382837  0.5936212564587370  0.3304005905466436
  0.5552069578634359  0.2959697211536458  0.3468722086075262
  0.6024024562127153  0.3745721159180836  0.7216788692077880
 
  0.00000000E+00  0.00000000E+00  0.00000000E+00
  0.00000000E+00  0.00000000E+00  0.00000000E+00
  0.00000000E+00  0.00000000E+00  0.00000000E+00
  0.00000000E+00  0.00000000E+00  0.00000000E+00
  0.00000000E+00  0.00000000E+00  0.00000000E+00
  0.00000000E+00  0.00000000E+00  0.00000000E+00
  0.00000000E+00  0.00000000E+00  0.00000000E+00
  0.00000000E+00  0.00000000E+00  0.00000000E+00
  0.00000000E+00  0.00000000E+00  0.00000000E+00
  0.00000000E+00  0.00000000E+00  0.00000000E+00
  0.00000000E+00  0.00000000E+00  0.00000000E+00
  0.00000000E+00  0.00000000E+00  0.00000000E+00
  0.00000000E+00  0.00000000E+00  0.00000000E+00
