pymatgen with grid density = 2626 / number of atoms
0
Gamma
6 5 4
