Sr2 Nb1 H7
1.0
3.882308 -0.010148 -0.996489
-1.849643 6.117457 0.510313
-2.724322 -2.176941 5.529548
Sr Nb H
2 1 7
direct
0.466280 0.196982 0.612695 Sr
0.120688 0.854684 0.943021 Sr
0.835070 0.527134 0.319623 Nb
0.352284 0.526806 0.620701 H
0.318102 0.275248 0.924690 H
0.817466 0.779394 0.175667 H
0.887342 0.525760 0.609089 H
0.181913 0.445734 0.202975 H
0.703337 0.222411 0.335385 H
0.305576 0.831128 0.641921 H
