H22                                     
   1.00000000000000     
     4.3303769367266476    0.1167879696898119   -0.1508036127622130
    -0.1303800465517430    4.9157966757561846   -0.4215629168925591
    -0.7273061717148510   -1.6247077300573916    6.5333868786764411
   H 
    22
Direct
  0.0286418498350300  0.0883331116701662  0.7249137132269220
  0.6390553849436725  0.3289482580606032  0.7504012322186124
  0.5017050577477211  0.2445290269039214  0.7581186541070202
  0.1394594206806111  0.0070940646204933  0.7772088595158049
  0.1303910666996820  0.6048841986101420  0.5172821781802122
  0.2195525607719659  0.5746344527868849  0.4271237883148618
  0.0238362752592732  0.6178258193047758  0.8225695260358856
  0.5807496703512911  0.7844544559901294  0.8223461141209116
  0.5885925238115964  0.7922681683028794  0.7152236903754894
  0.1747523662870209  0.5450813479222495  0.8264022812914836
  0.7458522793003556  0.8073752425175256  0.4406792126911772
  0.6107717508841748  0.9016207296363041  0.4493288304799781
  0.2384639447534704  0.9044440136232966  0.2216797250891474
  0.8413934735840621  0.6422913062476344  0.0837048676569936
  0.6896293454376133  0.7030877336434208  0.1107920980476865
  0.2191139472325939  0.4032789082775767  0.1080881768128031
  0.3930676120571947  0.4189918850528118  0.1325516833157836
  0.7492588047854561  0.3424769789788463  0.4106509629406426
  0.5988914245992544  0.3352618007912960  0.4497990512956875
  0.7690852580864721  0.1838756016104819  0.0289192389555942
  0.8183196491818998  0.1339301142452800  0.1212299030782336
  0.2983373337095699  0.0148677812032987  0.1806862122490542
 
  0.00000000E+00  0.00000000E+00  0.00000000E+00
  0.00000000E+00  0.00000000E+00  0.00000000E+00
  0.00000000E+00  0.00000000E+00  0.00000000E+00
  0.00000000E+00  0.00000000E+00  0.00000000E+00
  0.00000000E+00  0.00000000E+00  0.00000000E+00
  0.00000000E+00  0.00000000E+00  0.00000000E+00
  0.00000000E+00  0.00000000E+00  0.00000000E+00
  0.00000000E+00  0.00000000E+00  0.00000000E+00
  0.00000000E+00  0.00000000E+00  0.00000000E+00
  0.00000000E+00  0.00000000E+00  0.00000000E+00
  0.00000000E+00  0.00000000E+00  0.00000000E+00
  0.00000000E+00  0.00000000E+00  0.00000000E+00
  0.00000000E+00  0.00000000E+00  0.00000000E+00
  0.00000000E+00  0.00000000E+00  0.00000000E+00
  0.00000000E+00  0.00000000E+00  0.00000000E+00
  0.00000000E+00  0.00000000E+00  0.00000000E+00
  0.00000000E+00  0.00000000E+00  0.00000000E+00
  0.00000000E+00  0.00000000E+00  0.00000000E+00
  0.00000000E+00  0.00000000E+00  0.00000000E+00
  0.00000000E+00  0.00000000E+00  0.00000000E+00
  0.00000000E+00  0.00000000E+00  0.00000000E+00
  0.00000000E+00  0.00000000E+00  0.00000000E+00
