Sr1 Nb2 H20
1.0
4.912877 0.383569 0.540485
2.140825 6.065536 0.543456
2.876808 0.824374 6.583990
Sr Nb H
1 2 20
direct
0.998443 0.140994 0.394185 Sr
0.523821 0.699756 0.656083 Nb
0.231386 0.555549 0.441125 Nb
0.872827 0.213580 0.063575 H
0.014289 0.111820 0.011609 H
0.286961 0.767014 0.202761 H
0.130055 0.912235 0.691897 H
0.397614 0.918849 0.806812 H
0.872155 0.691610 0.373625 H
0.383833 0.444422 0.663047 H
0.447064 0.757619 0.406142 H
0.659721 0.476578 0.245843 H
0.124743 0.688310 0.985351 H
0.104927 0.609691 0.933288 H
0.561761 0.646632 0.940728 H
0.678605 0.530662 0.889249 H
0.580349 0.040466 0.021189 H
0.486503 0.131043 0.960488 H
0.904328 0.401131 0.626735 H
0.420399 0.252524 0.458362 H
0.289004 0.429244 0.230184 H
0.517806 0.974693 0.509307 H
0.857115 0.784548 0.630674 H
