Sr2 Nb1 H7                              
   1.00000000000000     
     3.6607514156432353   -0.3538856364152749    0.3573502243860638
     0.2692156623888936    5.3549441458677185    0.8074768618306215
     0.9554574563135589    1.7237188901822895    5.8378009370252926
   H    Sr   H    Nb   Sr
     5     1     2     1     1
Direct
  0.5630852072134881  0.2986469130291740  0.7038233032348098
  0.8374509702887861  0.1514241761266409  0.1362980031161979
  0.1903232570801318  0.4157416316394730  0.4047166932216814
  0.2289056736754860  0.0731615310335572  0.3878268094866389
  0.5882102998577730  0.8967987551506147  0.6646830747221872
  0.0638850412873424  0.5870630750815028  0.7125430853531838
  0.7189376752647409  0.6316773127221309  0.3595996434414026
  0.6455993248390348  0.5230211086729838  0.0791837594847681
  0.6559060330649094  0.2697685859565932  0.3982410224213288
  0.3455285174282850  0.9011759105873399  0.0767546055177958
 
  0.00000000E+00  0.00000000E+00  0.00000000E+00
  0.00000000E+00  0.00000000E+00  0.00000000E+00
  0.00000000E+00  0.00000000E+00  0.00000000E+00
  0.00000000E+00  0.00000000E+00  0.00000000E+00
  0.00000000E+00  0.00000000E+00  0.00000000E+00
  0.00000000E+00  0.00000000E+00  0.00000000E+00
  0.00000000E+00  0.00000000E+00  0.00000000E+00
  0.00000000E+00  0.00000000E+00  0.00000000E+00
  0.00000000E+00  0.00000000E+00  0.00000000E+00
  0.00000000E+00  0.00000000E+00  0.00000000E+00
