Sr1 Nb2 H17
1.0
3.367536 0.442066 0.386341
1.490445 6.201834 0.337625
0.908251 0.541218 7.993417
Sr Nb H
1 2 17
direct
0.451259 0.284438 0.242944 Sr
0.211829 0.158741 0.881190 Nb
0.652368 0.434520 0.627100 Nb
0.624818 0.855010 0.856034 H
0.409542 0.833317 0.921835 H
0.681011 0.108082 0.989404 H
0.786416 0.115175 0.746633 H
0.048998 0.390877 0.018952 H
0.234767 0.936205 0.332330 H
0.322524 0.875763 0.413223 H
0.151598 0.061356 0.112032 H
0.913518 0.685521 0.252570 H
0.985629 0.699957 0.155396 H
0.537006 0.735357 0.575865 H
0.141116 0.550737 0.515878 H
0.218614 0.586724 0.810971 H
0.284454 0.693355 0.741825 H
0.821077 0.448706 0.828155 H
0.282187 0.250680 0.622185 H
0.849463 0.286691 0.427390 H
