Sr1 Nb2 H9
1.0
3.219779 -0.839831 0.258505
-2.005798 4.854484 -0.378219
0.928984 -1.059838 8.262084
Sr Nb H
1 2 9
direct
0.149384 0.787630 0.601774 Sr
0.693500 0.061939 0.011294 Nb
0.683417 0.601696 0.177919 Nb
0.977495 0.812720 0.974212 H
0.679901 0.931234 0.790831 H
0.237374 0.342654 0.610790 H
0.965535 0.385191 0.202349 H
0.417208 0.860662 0.206181 H
0.279794 0.230844 0.296549 H
0.806252 0.831790 0.388678 H
0.368517 0.383595 0.376204 H
0.446563 0.290694 0.958603 H
