Sr1 Nb2 H8                              
   1.00000000000000     
     3.3626920774407041    0.0332208325849823    0.7046094953094434
    -0.0326537130731906    3.4355502733985479   -0.0151101168338527
     0.1342333726283230   -1.7197609672671572    7.6703578310774905
   H    Nb   H    Nb   H    Sr
     1     1     6     1     1     1
Direct
  0.8481659422166653  0.6933903104016546  0.4781784802619397
  0.7837104320153463  0.2559426609782138  0.6009679788654813
  0.2175904680941959  0.3229100930558458  0.7359771391057687
  0.9029150271373969  0.1294360760543292  0.3553694289017716
  0.7162056650007264  0.8249416602073144  0.7360191140406418
  0.5896895971377487  0.9491861982863495  0.9936281429709428
  0.0306081192944562  0.0186894017704537  0.1165843103955200
  0.0850382787370364  0.4545309302022643  0.9938340016048094
  0.1498963343092891  0.8919561397773128  0.8710418055761434
  0.3439658554296651  0.1989632682176824  0.4783479337811650
  0.4665702806274774  0.5738742610485839  0.2361306644958126
 
  0.00000000E+00  0.00000000E+00  0.00000000E+00
  0.00000000E+00  0.00000000E+00  0.00000000E+00
  0.00000000E+00  0.00000000E+00  0.00000000E+00
  0.00000000E+00  0.00000000E+00  0.00000000E+00
  0.00000000E+00  0.00000000E+00  0.00000000E+00
  0.00000000E+00  0.00000000E+00  0.00000000E+00
  0.00000000E+00  0.00000000E+00  0.00000000E+00
  0.00000000E+00  0.00000000E+00  0.00000000E+00
  0.00000000E+00  0.00000000E+00  0.00000000E+00
  0.00000000E+00  0.00000000E+00  0.00000000E+00
  0.00000000E+00  0.00000000E+00  0.00000000E+00
