Sr1 Nb1 H8                              
   1.00000000000000     
     3.7367143713076110   -0.0004669534407893   -0.4301962848119481
     2.1105106442482366    3.4753995325385092   -0.4057400985333552
     0.9097863433206912    0.1080459069773129    6.5296117352413834
   Sr   Nb   H 
     1     1     8
Direct
  0.5330179558537848  0.6507324780753830  0.3180040681858952
  0.8938584110904352  0.9707026827778034  0.8506474068190808
  0.8728126248347321  0.9745349115272507  0.1363917355941132
  0.4228963615376154  0.9563889778484964  0.9482214093029065
  0.8982471362996394  0.3947267701578601  0.7000626235268109
  0.9597197875013440  0.2061151694862195  0.6146053834447551
  0.1748119427989059  0.6619553806340432  0.6352098630805054
  0.3503163871599150  0.4837787297771821  0.9385999983354926
  0.2255049561207347  0.2959689236695014  0.3626231523382924
  0.5782044368028819  0.0131239760462578  0.6418503593721503
 
  0.00000000E+00  0.00000000E+00  0.00000000E+00
  0.00000000E+00  0.00000000E+00  0.00000000E+00
  0.00000000E+00  0.00000000E+00  0.00000000E+00
  0.00000000E+00  0.00000000E+00  0.00000000E+00
  0.00000000E+00  0.00000000E+00  0.00000000E+00
  0.00000000E+00  0.00000000E+00  0.00000000E+00
  0.00000000E+00  0.00000000E+00  0.00000000E+00
  0.00000000E+00  0.00000000E+00  0.00000000E+00
  0.00000000E+00  0.00000000E+00  0.00000000E+00
  0.00000000E+00  0.00000000E+00  0.00000000E+00
