Sr1 Nb2 H15                             
   1.00000000000000     
     3.3300163114424257   -0.2405767955066465    0.0316273828270934
    -0.7726975451222178    6.2434086947965639   -0.7658612235000144
    -0.6017696763631571   -1.4424702781439513    6.6937244640331874
   H    Nb   H    Nb   H    Sr   H 
     6     1     5     1     3     1     1
Direct
  0.5431660351910107  0.9230058047343120  0.8132422967222704
  0.5879940674571060  0.8674464102474509  0.7019380330486354
  0.2304603168344185  0.0121029417822127  0.9886022911064046
  0.0082794105176017  0.1996982746192590  0.8274452090366482
  0.7987395900557807  0.0750784182564922  0.1101678305911686
  0.1405420915297977  0.8196020572514957  0.3725493407073543
  0.3684617241319705  0.0902067131850017  0.2629866480233822
  0.8736353696052034  0.2645017428375068  0.3810046462060486
  0.3722054934376466  0.8081450442707733  0.0724423285706071
  0.5474996064051141  0.5105571077450376  0.9469399185858963
  0.0164156469315346  0.5017066965332047  0.1429163222537017
  0.4437218822861238  0.3305939179847388  0.1476190356967597
  0.5989345445074931  0.6531434016827046  0.2292752528476412
  0.7055995244996814  0.9675260616454959  0.4051679715910820
  0.5621086318091317  0.6096161594844939  0.4804444415909216
  0.4097338907418531  0.2768749707724122  0.5521040996057915
  0.0353740090000499  0.5463154121458574  0.7064394487428242
  0.0606371650584737  0.1654228648215495  0.7174328850728511
 
  0.00000000E+00  0.00000000E+00  0.00000000E+00
  0.00000000E+00  0.00000000E+00  0.00000000E+00
  0.00000000E+00  0.00000000E+00  0.00000000E+00
  0.00000000E+00  0.00000000E+00  0.00000000E+00
  0.00000000E+00  0.00000000E+00  0.00000000E+00
  0.00000000E+00  0.00000000E+00  0.00000000E+00
  0.00000000E+00  0.00000000E+00  0.00000000E+00
  0.00000000E+00  0.00000000E+00  0.00000000E+00
  0.00000000E+00  0.00000000E+00  0.00000000E+00
  0.00000000E+00  0.00000000E+00  0.00000000E+00
  0.00000000E+00  0.00000000E+00  0.00000000E+00
  0.00000000E+00  0.00000000E+00  0.00000000E+00
  0.00000000E+00  0.00000000E+00  0.00000000E+00
  0.00000000E+00  0.00000000E+00  0.00000000E+00
  0.00000000E+00  0.00000000E+00  0.00000000E+00
  0.00000000E+00  0.00000000E+00  0.00000000E+00
  0.00000000E+00  0.00000000E+00  0.00000000E+00
  0.00000000E+00  0.00000000E+00  0.00000000E+00
