Sr2 Nb2 H12                             
   1.00000000000000     
     5.7151809659527544    0.7006183518455577   -0.3000996123194841
     2.4200224767494434    5.5797876706757874   -0.0909558573974730
     0.5125388890808522    0.1651666068404274    5.7143481915460512
   H    Nb   H    Sr   H    Nb   H    Sr
     4     1     3     1     2     1     3     1
Direct
  0.3140432868578732  0.3101716465888884  0.1200160722916667
  0.0999948687818500  0.6181602020272803  0.8924055979156453
  0.7240669314986010  0.6539465298961386  0.8999014445442339
  0.3267768692340855  0.2605166914032339  0.7099673399690672
  0.0396307415147465  0.3478594185727248  0.9220121885854700
  0.0460284212336979  0.1347598342020564  0.7022214018490582
  0.7509393845845406  0.2952608200284608  0.9319925686787215
  0.1753348350654558  0.0503219764433995  0.1132234065250992
  0.8156880320985468  0.9272015032233203  0.1619339049028139
  0.0710075594747461  0.9827739937767228  0.4401050970332272
  0.4963160480761253  0.9152396439640910  0.4316002491208949
  0.1894976720564550  0.2269103721314115  0.4205999625707706
  0.8616005233639239  0.4333266700029600  0.2438173703815939
  0.4931019184238883  0.2506853158043125  0.4135925843567266
  0.1110085221322717  0.5625441340539045  0.4187742123856988
  0.4401513856031876  0.6009862478811073  0.6339555988893198
 
  0.00000000E+00  0.00000000E+00  0.00000000E+00
  0.00000000E+00  0.00000000E+00  0.00000000E+00
  0.00000000E+00  0.00000000E+00  0.00000000E+00
  0.00000000E+00  0.00000000E+00  0.00000000E+00
  0.00000000E+00  0.00000000E+00  0.00000000E+00
  0.00000000E+00  0.00000000E+00  0.00000000E+00
  0.00000000E+00  0.00000000E+00  0.00000000E+00
  0.00000000E+00  0.00000000E+00  0.00000000E+00
  0.00000000E+00  0.00000000E+00  0.00000000E+00
  0.00000000E+00  0.00000000E+00  0.00000000E+00
  0.00000000E+00  0.00000000E+00  0.00000000E+00
  0.00000000E+00  0.00000000E+00  0.00000000E+00
  0.00000000E+00  0.00000000E+00  0.00000000E+00
  0.00000000E+00  0.00000000E+00  0.00000000E+00
  0.00000000E+00  0.00000000E+00  0.00000000E+00
  0.00000000E+00  0.00000000E+00  0.00000000E+00
