Sr1 Nb1 H8
1.0
3.351079 -0.455072 -0.279724
0.896120 6.230207 0.583949
0.626755 2.777264 4.569864
Sr Nb H
1 1 8
direct
0.831543 0.843243 0.117085 Sr
0.355774 0.481830 0.832051 Nb
0.328579 0.726755 0.917939 H
0.337447 0.818685 0.488453 H
0.281564 0.290348 0.314473 H
0.488568 0.233597 0.307793 H
0.830965 0.278932 0.019636 H
0.827920 0.669200 0.672191 H
0.321426 0.162717 0.878260 H
0.334027 0.516632 0.472092 H
