Sr1 Nb2 H21                             
   1.00000000000000     
     5.4819540082255935    0.4608232929900267   -0.2186264865954954
     0.5608070028762312    5.8362877065553675   -0.3701659101792278
    -0.0261676211029686   -0.1071835680071561    5.7763157758880705
   H    Nb   H    Nb   H    Sr   H 
     2     1     5     1    10     1     4
Direct
  0.1732206177783907  0.9441032585644880  0.3550107162397164
  0.8703335158059913  0.2675880174574562  0.2826395754977061
  0.9727723356643082  0.4593630005937411  0.5253571848442870
  0.2137652104059868  0.1871983080709305  0.6301636982475884
  0.2409638279696583  0.3700557857621156  0.3359541323101420
  0.4413332471803834  0.9002074281546399  0.7147146789151724
  0.0576648815633485  0.0963048882681647  0.9543723721713886
  0.1939911274800065  0.0198611271945774  0.9703929235146693
  0.1139662732680117  0.8994155836809574  0.6445659622978841
  0.7453301830124822  0.5950581108246432  0.3213453183258455
  0.6192008221681577  0.4731611169769414  0.5664245045695689
  0.8384152536270753  0.1174471526775271  0.6792506219293662
  0.6859101530756267  0.4517153001831453  0.7038564549298391
  0.2158661547514112  0.5836095771732838  0.7314970204842269
  0.1103480868231014  0.6818211993677040  0.3863752495079351
  0.4186753783850743  0.7053891308216554  0.0338314680250195
  0.4353836016829460  0.6544509150008133  0.1519529072029939
  0.4698949526223691  0.2640618377454750 -0.0450718438372822
  0.5929108604404776  0.2900179423256630  0.0028281044232781
  0.5658263399817075  0.0354467901259587  0.3457630769562144
  0.8104543382408438  0.8521818185622383 -0.0020741126358839
  0.8578175057405153  0.7715483157929494  0.0928083985716800
  0.9166120701715174  0.4473043966526923  0.8275358206813874
  0.8254682621606370  0.7544029980222683  0.6479827668272744
 
  0.00000000E+00  0.00000000E+00  0.00000000E+00
  0.00000000E+00  0.00000000E+00  0.00000000E+00
  0.00000000E+00  0.00000000E+00  0.00000000E+00
  0.00000000E+00  0.00000000E+00  0.00000000E+00
  0.00000000E+00  0.00000000E+00  0.00000000E+00
  0.00000000E+00  0.00000000E+00  0.00000000E+00
  0.00000000E+00  0.00000000E+00  0.00000000E+00
  0.00000000E+00  0.00000000E+00  0.00000000E+00
  0.00000000E+00  0.00000000E+00  0.00000000E+00
  0.00000000E+00  0.00000000E+00  0.00000000E+00
  0.00000000E+00  0.00000000E+00  0.00000000E+00
  0.00000000E+00  0.00000000E+00  0.00000000E+00
  0.00000000E+00  0.00000000E+00  0.00000000E+00
  0.00000000E+00  0.00000000E+00  0.00000000E+00
  0.00000000E+00  0.00000000E+00  0.00000000E+00
  0.00000000E+00  0.00000000E+00  0.00000000E+00
  0.00000000E+00  0.00000000E+00  0.00000000E+00
  0.00000000E+00  0.00000000E+00  0.00000000E+00
  0.00000000E+00  0.00000000E+00  0.00000000E+00
  0.00000000E+00  0.00000000E+00  0.00000000E+00
  0.00000000E+00  0.00000000E+00  0.00000000E+00
  0.00000000E+00  0.00000000E+00  0.00000000E+00
  0.00000000E+00  0.00000000E+00  0.00000000E+00
  0.00000000E+00  0.00000000E+00  0.00000000E+00
