H16                                     
   1.00000000000000     
     2.3988767729712861   -0.0435728448268024   -0.0254472167555353
     0.4345614526517326    4.0416953849897013    0.1663771576268122
     0.6591000263302697    0.6010213825108146   10.0384695134468487
   H 
    16
Direct
  0.4566936802870869  0.4320189866804449  0.9437395862932754
  0.2929453769773965  0.8084390650141764  0.6997037294910049
  0.4885568754033074  0.6761732872611272  0.6755558790911110
  0.6250680599504135  0.0196561475994714  0.8846209506299264
 -0.2278485945150687  0.9811112224918564  0.8206256191414124
  0.0293580302126475 -0.0754524061815242  0.0543341302585625
  0.2316011579242338  0.5591740890068403  0.9211147506962389
  0.1500342005119886  0.0662120148937326  0.0802954122767407
  0.0553841580413560  0.3310717302587720  0.6729917178686922
  0.5018672567291982  0.4312927734537339  0.3810194641927928
  0.2645004296116397  0.4682325755637444  0.4293387909665210
  0.0360567271673319  0.8660045587388556  0.4843663226765262
  0.8328159002917727  0.0135899225288053  0.4735059118617765
 -0.0025463685376064  0.2148997099629588  0.6237781209712274
  0.7694606926334512  0.4506118334690208  0.1926594316952961
  0.5469484173108522  0.5469224892579901  0.1532401818888959
 
  0.00000000E+00  0.00000000E+00  0.00000000E+00
  0.00000000E+00  0.00000000E+00  0.00000000E+00
  0.00000000E+00  0.00000000E+00  0.00000000E+00
  0.00000000E+00  0.00000000E+00  0.00000000E+00
  0.00000000E+00  0.00000000E+00  0.00000000E+00
  0.00000000E+00  0.00000000E+00  0.00000000E+00
  0.00000000E+00  0.00000000E+00  0.00000000E+00
  0.00000000E+00  0.00000000E+00  0.00000000E+00
  0.00000000E+00  0.00000000E+00  0.00000000E+00
  0.00000000E+00  0.00000000E+00  0.00000000E+00
  0.00000000E+00  0.00000000E+00  0.00000000E+00
  0.00000000E+00  0.00000000E+00  0.00000000E+00
  0.00000000E+00  0.00000000E+00  0.00000000E+00
  0.00000000E+00  0.00000000E+00  0.00000000E+00
  0.00000000E+00  0.00000000E+00  0.00000000E+00
  0.00000000E+00  0.00000000E+00  0.00000000E+00
