pymatgen with grid density = 2003 / number of atoms
0
Gamma
6 4 3
