Sr1 Nb2 H9                              
   1.00000000000000     
     3.8786009926954450    0.7487227853058107   -0.3695109091501620
     2.3989095639370421    5.3525346489687582    0.1704099167114687
     0.1341984794692033    0.4914259105096426    5.8919509389144142
   H    Nb   H    Nb   H    Sr
     3     1     2     1     4     1
Direct
  0.4372229564118212  0.2604035147456141  0.4183670634421420
  0.3368264091815763  0.5892431439147137  0.5999805980471247
  0.7204454456318130  0.7892901848952351  0.2906265955367885
  0.1875668484136173  0.1838770163791703  0.1905997682920516
  0.2551870178403015  0.2260975699766618  0.8831854976139925
  0.2047601999243756  0.4913490444828761  0.0624149329211737
  0.3454372591603680  0.6332408754775876  0.2839321963993198
  0.6697726447743643  0.4946972906578648  0.0364751421428955
  0.1312469937734511  0.9556901378049372  0.4181735814219316
  0.0990422822459099  0.9304980061548940  0.0261069214802075
  0.8770341463618305  0.3525880959235524  0.4387926468014736
  0.7008827962805819  0.7977571195869004  0.7445090559008912
 
  0.00000000E+00  0.00000000E+00  0.00000000E+00
  0.00000000E+00  0.00000000E+00  0.00000000E+00
  0.00000000E+00  0.00000000E+00  0.00000000E+00
  0.00000000E+00  0.00000000E+00  0.00000000E+00
  0.00000000E+00  0.00000000E+00  0.00000000E+00
  0.00000000E+00  0.00000000E+00  0.00000000E+00
  0.00000000E+00  0.00000000E+00  0.00000000E+00
  0.00000000E+00  0.00000000E+00  0.00000000E+00
  0.00000000E+00  0.00000000E+00  0.00000000E+00
  0.00000000E+00  0.00000000E+00  0.00000000E+00
  0.00000000E+00  0.00000000E+00  0.00000000E+00
  0.00000000E+00  0.00000000E+00  0.00000000E+00
