pymatgen with grid density = 2702 / number of atoms
0
Gamma
9 6 3
