Sr1 Nb4 H17                             
   1.00000000000000     
     4.8538093429609308   -0.0292056400296447   -0.6692986659428861
    -0.0896331127580486    5.9378450051377909    0.2055416156495049
    -1.7798352603579168    0.1553084897839314    7.3191639408333753
   Sr   Nb   H 
     1     4    17
Direct
  0.3314150675690489  0.1160329050940693  0.1068818130584236
  0.6607226289883401  0.9331583100261345  0.7483005033598135
  0.0529793318169183  0.2441110026217791  0.5372197696028280
  0.0442801442282546  0.7396610024617389  0.5725892685128682
  0.6554515144196069  0.4309975349503536  0.7775021823648274
  0.9562058580601530  0.7003237428579838  0.8037296019045853
  0.8485093803593665  0.8896323282499849  0.0059857043726333
  0.5977302089686813  0.4402164156286087  0.0011757991037095
  0.9830048566208298  0.4282218269473372 -0.0035004620504130
  0.1116575395920595  0.2535867314946170  0.3121364956270209
  0.8942863493594858  0.5168797640076672  0.3628314316771401
  0.2535981281269860  0.6664526719971903  0.1731518586955831
  0.3774692801493423  0.6953668894919616  0.2670470367795884
  0.6613520393259880  0.1533283342611326  0.9198074418960694
  0.9283176047933834  0.1898448968390736  0.7758897687811247
  0.4427436761774383  0.6889390550918543  0.8133611316431867
  0.8397943444766097  0.9811759270724625  0.3931531434030644
  0.4669006004393043  0.2061297529323944  0.5830105842470805
  0.7915337219273850  0.4795013890931119  0.5563424997091898
  0.2801546514200644  0.3625716818937250  0.7809985805909869
  0.2435211765888932  0.9874359802224846  0.7173656225443243
  0.2947938965918623  0.5054388567643333  0.5279592241763595
 
  0.00000000E+00  0.00000000E+00  0.00000000E+00
  0.00000000E+00  0.00000000E+00  0.00000000E+00
  0.00000000E+00  0.00000000E+00  0.00000000E+00
  0.00000000E+00  0.00000000E+00  0.00000000E+00
  0.00000000E+00  0.00000000E+00  0.00000000E+00
  0.00000000E+00  0.00000000E+00  0.00000000E+00
  0.00000000E+00  0.00000000E+00  0.00000000E+00
  0.00000000E+00  0.00000000E+00  0.00000000E+00
  0.00000000E+00  0.00000000E+00  0.00000000E+00
  0.00000000E+00  0.00000000E+00  0.00000000E+00
  0.00000000E+00  0.00000000E+00  0.00000000E+00
  0.00000000E+00  0.00000000E+00  0.00000000E+00
  0.00000000E+00  0.00000000E+00  0.00000000E+00
  0.00000000E+00  0.00000000E+00  0.00000000E+00
  0.00000000E+00  0.00000000E+00  0.00000000E+00
  0.00000000E+00  0.00000000E+00  0.00000000E+00
  0.00000000E+00  0.00000000E+00  0.00000000E+00
  0.00000000E+00  0.00000000E+00  0.00000000E+00
  0.00000000E+00  0.00000000E+00  0.00000000E+00
  0.00000000E+00  0.00000000E+00  0.00000000E+00
  0.00000000E+00  0.00000000E+00  0.00000000E+00
  0.00000000E+00  0.00000000E+00  0.00000000E+00
