Sr1 Nb1 H8
1.0
3.989723 0.403619 0.433534
-0.326310 3.584181 0.193353
-0.472515 -1.063847 5.437926
Sr Nb H
1 1 8
direct
0.633112 0.722610 0.212353 Sr
0.254138 0.254449 0.720486 Nb
0.009308 0.222806 0.298307 H
0.015074 0.210293 0.148363 H
0.750521 0.283944 0.752413 H
0.447881 0.266449 0.428656 H
0.113779 0.638286 0.951718 H
0.417817 0.183767 0.009607 H
0.465368 0.760548 0.706803 H
0.061353 0.842730 0.530524 H
