Sr2 Nb1 H13                             
   1.00000000000000     
     5.2123872421088508   -0.0054690446255228    0.0010794248898637
    -0.2790968811298447    5.2630164257234631    0.0380682744201043
    -0.1357940881107395   -1.8152578083512172    5.9586131600784222
   Sr   Nb   H 
     2     1    13
Direct
  0.2722033655767973  0.1928894814467428  0.1265564768868920
  0.8136498702892480  0.3538068253618844  0.6528423150892018
  0.2831085750521133  0.8181910566786316  0.5115355084339012
  0.5457295694527523  0.8459724085515909  0.7608998266290790
  0.4264561624185956  0.7371342528686240  0.7756674998743162
  0.7881265582369802  0.7849472300269755  0.0232330482264520
  0.7684273442195684  0.6688553310685755  0.0726819220163141
  0.0521209241868839  0.0114187703152413  0.4004006147737030
  0.9944657928737749  0.6198085059250625  0.3971286435835085
  0.5202542028941939  0.0233558721533467  0.3995427180773432
  0.2681478318601551  0.4899236893302855  0.5526077702321966
  0.5590154627923596  0.6204819884421255  0.4117428650644302
  0.0464509238618887  0.8439575708021211  0.7376912852812298
  0.7754416828092934  0.2359020692460293  0.0183020159363185
  0.2733553251062813  0.7002879753650221  0.2005531244530530
  0.3143264083691044  0.1576009724177420  0.7127603654420596
 
  0.00000000E+00  0.00000000E+00  0.00000000E+00
  0.00000000E+00  0.00000000E+00  0.00000000E+00
  0.00000000E+00  0.00000000E+00  0.00000000E+00
  0.00000000E+00  0.00000000E+00  0.00000000E+00
  0.00000000E+00  0.00000000E+00  0.00000000E+00
  0.00000000E+00  0.00000000E+00  0.00000000E+00
  0.00000000E+00  0.00000000E+00  0.00000000E+00
  0.00000000E+00  0.00000000E+00  0.00000000E+00
  0.00000000E+00  0.00000000E+00  0.00000000E+00
  0.00000000E+00  0.00000000E+00  0.00000000E+00
  0.00000000E+00  0.00000000E+00  0.00000000E+00
  0.00000000E+00  0.00000000E+00  0.00000000E+00
  0.00000000E+00  0.00000000E+00  0.00000000E+00
  0.00000000E+00  0.00000000E+00  0.00000000E+00
  0.00000000E+00  0.00000000E+00  0.00000000E+00
  0.00000000E+00  0.00000000E+00  0.00000000E+00
