Sr1 Nb1 H6                              
   1.00000000000000     
     3.3205508025054282    0.2168343299256140    0.2963334922628839
     1.4529031343883088    3.0195868962084118    0.1698614660851638
     1.3261110014201758    1.3537995552177406    9.2544252718147426
   H    Nb   H    Sr   H 
     1     1     1     1     4
Direct
  0.5048028228836572  0.4791815778406688  0.1398151909521521
  0.5923381151095178  0.5738144401624554  0.9419301516259503
  0.3930924353297375  0.3634909004647741  0.3957613676025334
  0.1155313945302060  0.0829224062743251  0.2698228087302226
  0.2923943891805762  0.2744513017486854  0.8631147811753969
  0.8982410371027674  0.8814007133326937  0.0029403606494343
  0.8337313436320649  0.0268342410635189  0.5783563747994508
  0.9206114622314633  0.0131814191128828  0.6478939644648469
 
  0.00000000E+00  0.00000000E+00  0.00000000E+00
  0.00000000E+00  0.00000000E+00  0.00000000E+00
  0.00000000E+00  0.00000000E+00  0.00000000E+00
  0.00000000E+00  0.00000000E+00  0.00000000E+00
  0.00000000E+00  0.00000000E+00  0.00000000E+00
  0.00000000E+00  0.00000000E+00  0.00000000E+00
  0.00000000E+00  0.00000000E+00  0.00000000E+00
  0.00000000E+00  0.00000000E+00  0.00000000E+00
