Sr2 Nb1 H12
1.0
5.786497 -0.451603 -0.537650
-2.174385 5.117004 -0.391129
-3.042904 -1.054338 5.774606
Sr Nb H
2 1 12
direct
0.638381 0.568111 0.571119 Sr
0.648746 0.082537 0.023778 Sr
0.102634 0.795424 0.360723 Nb
0.183963 0.192922 0.981317 H
0.152122 0.194076 0.853895 H
0.158694 0.113980 0.258123 H
0.311683 0.677567 0.619289 H
0.138185 0.932645 0.637939 H
0.163493 0.585743 0.845162 H
0.169546 0.620160 0.962541 H
0.752654 0.801930 0.284618 H
0.768802 0.615919 0.004340 H
0.802693 0.453496 0.342073 H
0.163358 0.542261 0.237259 H
0.553276 0.081556 0.591613 H
