Sr2 Nb1 H15                             
   1.00000000000000     
     6.2024884495649832    0.2348437607353132    0.0966490376595312
    -0.3634149746246615    6.0917880273889216   -0.5853565580988407
    -3.1627808661110914   -2.9146587475125703    4.3283536094890644
   H    Sr   H    Nb   H    Sr
     4     1     9     1     2     1
Direct
  0.9150925015463705  0.4008440885087080  0.7948453303611075
  0.9213928593446726  0.6819620646662945  0.6984684570582832
  0.9866964060757262  0.1275146978126343  0.0254992872861394
  0.9927745077410813  0.2507678367646937  0.0226006648063083
 -0.0051290952414161  0.9662404022961180  0.5483527837029856
  0.1345344806546285  0.4190697036715846  0.6219131743900433
  0.2058401156639171  0.6793954384756020  0.3066175698205312
  0.5425346178669471  0.9825513024182393  0.4589390544967177
  0.6546256438137182  0.4178591581254413  0.0721018724233370
  0.7736886341441535  0.4007661980265838  0.0693775118438604
  0.3599621470797840  0.4420527196502332  0.0771025605558715
  0.5897281804256959  0.9504117284051832  0.9155122488977774
  0.5325649432602907  0.7288815961491152  0.0476715477867248
  0.5827111328642559  0.9469161754883131  0.7856173129233075
  0.2274457032963116  0.6990228469060514  0.0281659936187535
  0.3280780333265623  0.9937390701541448  0.0350737242751194
  0.0975937726584726  0.9521191451082026  0.2061812767007982
  0.4790144154788526  0.4348538273728541  0.5346706290523269
 
  0.00000000E+00  0.00000000E+00  0.00000000E+00
  0.00000000E+00  0.00000000E+00  0.00000000E+00
  0.00000000E+00  0.00000000E+00  0.00000000E+00
  0.00000000E+00  0.00000000E+00  0.00000000E+00
  0.00000000E+00  0.00000000E+00  0.00000000E+00
  0.00000000E+00  0.00000000E+00  0.00000000E+00
  0.00000000E+00  0.00000000E+00  0.00000000E+00
  0.00000000E+00  0.00000000E+00  0.00000000E+00
  0.00000000E+00  0.00000000E+00  0.00000000E+00
  0.00000000E+00  0.00000000E+00  0.00000000E+00
  0.00000000E+00  0.00000000E+00  0.00000000E+00
  0.00000000E+00  0.00000000E+00  0.00000000E+00
  0.00000000E+00  0.00000000E+00  0.00000000E+00
  0.00000000E+00  0.00000000E+00  0.00000000E+00
  0.00000000E+00  0.00000000E+00  0.00000000E+00
  0.00000000E+00  0.00000000E+00  0.00000000E+00
  0.00000000E+00  0.00000000E+00  0.00000000E+00
  0.00000000E+00  0.00000000E+00  0.00000000E+00
