Sr1 Nb1 H9                              
   1.00000000000000     
     3.7566025920396955    0.2824430284956312   -0.3933841477138394
     0.3161100757974760    3.8134418279475657   -0.6607894494496532
    -1.9651874182762545   -2.4182727203782655    7.7076721909190802
   Sr   Nb   H 
     1     1     9
Direct
  0.5493705648003502  0.6784043366244347  0.5638189559169652
  0.1631850350049306  0.3319748365665555  0.0086195357417351
  0.4683812980591215  0.6836231792855729  0.2224939750129880
  0.8382231258694683  0.7209966115708574  0.1389195590960264
  0.0500880820734758  0.8171573466340584  0.2022546849241194
  0.2000680749845344  0.2924300871689840  0.2189226443559031
  0.6999805882327645  0.1637637470464193  0.9960846776522069
  0.1465019819509931  0.0059069724197141  0.7559382931039219
  0.0956318411658462  0.2089962020720116  0.5016178262335808
  0.7517961585245874  0.4247044888923052  0.8424173862561199
  0.2287632493339392  0.7840571917190794  0.9615004617064398
 
  0.00000000E+00  0.00000000E+00  0.00000000E+00
  0.00000000E+00  0.00000000E+00  0.00000000E+00
  0.00000000E+00  0.00000000E+00  0.00000000E+00
  0.00000000E+00  0.00000000E+00  0.00000000E+00
  0.00000000E+00  0.00000000E+00  0.00000000E+00
  0.00000000E+00  0.00000000E+00  0.00000000E+00
  0.00000000E+00  0.00000000E+00  0.00000000E+00
  0.00000000E+00  0.00000000E+00  0.00000000E+00
  0.00000000E+00  0.00000000E+00  0.00000000E+00
  0.00000000E+00  0.00000000E+00  0.00000000E+00
  0.00000000E+00  0.00000000E+00  0.00000000E+00
