Sr2 Nb1 H17                             
   1.00000000000000     
     5.0628080706167395   -0.1665417964672410    0.2272657170255910
     0.2968838178447727    5.1060128481914848    0.2384752149627937
     0.8164350958627484    2.5974670350544318    6.5064785830999963
   H    Nb   H    Sr
     3     1    14     2
Direct
  0.8505355885912335  0.0750376441253099  0.2081581468346729
  0.1083677031946988  0.1731391789604442  0.9185086600414316
  0.7180445302584040 -0.0009520431893292  0.2048183587948565
  0.4273692465567158  0.1940428106329253  0.7420664357378535
  0.1497295646489142  0.3604727448190568  0.8688426164249075
 -0.0045774856031983  0.6239002907019482  0.2005066858571151
  0.8962149378142485  0.6127903247839698 -0.0354817364602237
  0.0717988519876099  0.7041862158354757  0.2489679047465532
  0.7276779014407420 -0.0254688404142734  0.8406320612802437
  0.7963119023668034  0.1579796306830856  0.7516225660647365
  0.3710505358822362  0.8102457254023787  0.8015420819012907
  0.1960480543236375  0.8649478543991269  0.8541937482823824
  0.4321016760082450 -0.0041455068808263  0.0255541297774572
  0.5725585454274917  0.4080005240364834  0.8547862396837307
  0.1668684895781484  0.2806225288302744  0.5654276679533745
  0.5772423507361411  0.1131025349142058  0.5179591425527877
  0.5139641970463109  0.5666862721581492  0.5222395056694799
  0.1208660179777644  0.1259857644798777  0.2794245502614097
  0.4713670869766031  0.4504036981971716  0.1854956066729688
  0.9286683047872492  0.7615186475245319  0.5880016279229765
 
  0.00000000E+00  0.00000000E+00  0.00000000E+00
  0.00000000E+00  0.00000000E+00  0.00000000E+00
  0.00000000E+00  0.00000000E+00  0.00000000E+00
  0.00000000E+00  0.00000000E+00  0.00000000E+00
  0.00000000E+00  0.00000000E+00  0.00000000E+00
  0.00000000E+00  0.00000000E+00  0.00000000E+00
  0.00000000E+00  0.00000000E+00  0.00000000E+00
  0.00000000E+00  0.00000000E+00  0.00000000E+00
  0.00000000E+00  0.00000000E+00  0.00000000E+00
  0.00000000E+00  0.00000000E+00  0.00000000E+00
  0.00000000E+00  0.00000000E+00  0.00000000E+00
  0.00000000E+00  0.00000000E+00  0.00000000E+00
  0.00000000E+00  0.00000000E+00  0.00000000E+00
  0.00000000E+00  0.00000000E+00  0.00000000E+00
  0.00000000E+00  0.00000000E+00  0.00000000E+00
  0.00000000E+00  0.00000000E+00  0.00000000E+00
  0.00000000E+00  0.00000000E+00  0.00000000E+00
  0.00000000E+00  0.00000000E+00  0.00000000E+00
  0.00000000E+00  0.00000000E+00  0.00000000E+00
  0.00000000E+00  0.00000000E+00  0.00000000E+00
