pymatgen with grid density = 1951 / number of atoms
0
Gamma
7 5 4
