Sr1 Nb6 H17                             
   1.00000000000000     
     6.3932295506699726    1.3069450761702215    0.1570551541845903
     2.1020060389308899    6.2308199015481165   -0.6698439253292128
     3.2086784894144031   -0.4873084160827356    5.6006243421430257
   H    Nb   H    Nb   H    Nb   H    Sr   H    Nb   H    Nb   H    Nb   H 
     2     1     1     1     1     1     2     1     1     1     1     1     5     1     4
Direct
  0.1938563803701914  0.4017094113794078  0.0840569744569390
  0.6989871465733090  0.6508848755388892  0.3323786948791122
  0.4479439736306435  0.5192962432167053  0.4464409521264715
  0.1938598017659090  0.4021187647306888  0.5795074859591046
  0.9537889419463890  0.5283467290716417  0.9514225404540898
  0.2277663752294415  0.6153648197335448  0.8138108269384413
  0.4530311779678655  0.0219905580194316  0.4497922059103390
  0.6763829273590778  0.1637981278629677  0.3676321878328512
  0.2340585254108551  0.8818705328734007  0.5349401935949571
  0.9572973365085071  0.0242061183424840  0.9494166766483506
  0.2261189867198379  0.1676608667312683  0.8145689339611064
  0.4530632956730991  0.0218500497428251  0.9538541064076278
  0.6754014921321523  0.1641184186686983  0.8112769346700385
  0.4470570808813845  0.5195568451347466  0.9629167392535113
  0.6973874491423040  0.6511538819728486  0.8258890263159379
  0.6912035171681734  0.4406106094626319  0.0837025648146153
  0.1782807285444566  0.6725914189918587  0.3385694666547343
  0.6844168781094579  0.8841269914592653  0.0867315766637312
  0.4422721405366779  0.3368663357436312  0.2069777740238252
  0.9532990767243511  0.0335398379181416  0.4516474902593096
  0.1954828169291075  0.1614988198708112  0.3299203665013918
  0.7082820509674680  0.8982829220551706  0.5749015426663243
  0.2339461869385565  0.8819868064033817  0.0891509482975805
  0.6957647127707806  0.4076390150755419  0.5813067907096082
 
  0.00000000E+00  0.00000000E+00  0.00000000E+00
  0.00000000E+00  0.00000000E+00  0.00000000E+00
  0.00000000E+00  0.00000000E+00  0.00000000E+00
  0.00000000E+00  0.00000000E+00  0.00000000E+00
  0.00000000E+00  0.00000000E+00  0.00000000E+00
  0.00000000E+00  0.00000000E+00  0.00000000E+00
  0.00000000E+00  0.00000000E+00  0.00000000E+00
  0.00000000E+00  0.00000000E+00  0.00000000E+00
  0.00000000E+00  0.00000000E+00  0.00000000E+00
  0.00000000E+00  0.00000000E+00  0.00000000E+00
  0.00000000E+00  0.00000000E+00  0.00000000E+00
  0.00000000E+00  0.00000000E+00  0.00000000E+00
  0.00000000E+00  0.00000000E+00  0.00000000E+00
  0.00000000E+00  0.00000000E+00  0.00000000E+00
  0.00000000E+00  0.00000000E+00  0.00000000E+00
  0.00000000E+00  0.00000000E+00  0.00000000E+00
  0.00000000E+00  0.00000000E+00  0.00000000E+00
  0.00000000E+00  0.00000000E+00  0.00000000E+00
  0.00000000E+00  0.00000000E+00  0.00000000E+00
  0.00000000E+00  0.00000000E+00  0.00000000E+00
  0.00000000E+00  0.00000000E+00  0.00000000E+00
  0.00000000E+00  0.00000000E+00  0.00000000E+00
  0.00000000E+00  0.00000000E+00  0.00000000E+00
  0.00000000E+00  0.00000000E+00  0.00000000E+00
