pymatgen with grid density = 2650 / number of atoms
0
Gamma
5 5 3
