Sr2 Nb2 H11                             
   1.00000000000000     
     3.5732095531502313    0.3637245992590496   -0.0020297507008833
    -0.5613800377962692    5.7445002761137349    0.1159908931791746
     0.0038438230558046   -0.1041839230309498    6.5185570320070552
   H    Sr   H    Nb   H    Sr
     3     1     5     2     3     1
Direct
  0.9935137557889476  0.5170237610621877  0.8713796792629668
  0.4806161174739615  0.4227890007421191  0.0278406201022661
  0.2801005511632378  0.0867425581454732  0.0164206211922432
  0.5032938559265802  0.3619573172763398  0.6654952683487292
  0.4712478644650307  0.2885567422452845  0.2843308361441565
  0.7635250743005286  0.0903748404154604  0.0152132090933102
  0.0076618776274527  0.0890375208721653  0.6682278286051712
  0.5125416917116986  0.7838623485598385  0.7993724978120059
  0.0024327618264202  0.6957284313986173  0.1364480701421752
  0.0252364536807509  0.3535644253523199  0.1453367979939373
  0.0132320475210954  0.8586742424912513  0.8658363901653342
  0.9824859657453718  0.1363104036497632  0.3531870454116158
  0.9959058376288955  0.4914884497615539  0.4006787411185654
  0.0074636767830296  0.7348305979679601  0.6044575613403357
  0.4998744683570011  0.8582623600596559  0.3439848332671763
 
  0.00000000E+00  0.00000000E+00  0.00000000E+00
  0.00000000E+00  0.00000000E+00  0.00000000E+00
  0.00000000E+00  0.00000000E+00  0.00000000E+00
  0.00000000E+00  0.00000000E+00  0.00000000E+00
  0.00000000E+00  0.00000000E+00  0.00000000E+00
  0.00000000E+00  0.00000000E+00  0.00000000E+00
  0.00000000E+00  0.00000000E+00  0.00000000E+00
  0.00000000E+00  0.00000000E+00  0.00000000E+00
  0.00000000E+00  0.00000000E+00  0.00000000E+00
  0.00000000E+00  0.00000000E+00  0.00000000E+00
  0.00000000E+00  0.00000000E+00  0.00000000E+00
  0.00000000E+00  0.00000000E+00  0.00000000E+00
  0.00000000E+00  0.00000000E+00  0.00000000E+00
  0.00000000E+00  0.00000000E+00  0.00000000E+00
  0.00000000E+00  0.00000000E+00  0.00000000E+00
