pymatgen with grid density = 2117 / number of atoms
0
Gamma
6 3 4
