Sr1 Nb1 H8                              
   1.00000000000000     
     3.6761977735779392   -0.0007648379495661   -0.4224209967965618
     2.0755350492880478    3.4211431863788997   -0.4028715304705051
     0.8974714668143999    0.0987510543895415    6.4327531699179010
   H    Nb   H    Sr   H 
     2     1     4     1     2
Direct
  0.8722041537765627  0.9744846280974068  0.1385217999209123
  0.4217686953651639  0.9557819244905542  0.9497602683181642
  0.8949543161939230  0.9724323467775502  0.8511797869627830
  0.8959005132474823  0.4000950137391374  0.7019674817729997
  0.9601298846729101  0.2041839389634769  0.6117067168997466
  0.1775469059410435  0.6587827180045210  0.6327841453012943
  0.3519951137394010  0.4816533045358364  0.9393463727951131
  0.5337672140531297  0.6504638403193612  0.3179285676974567
  0.2271172877325931  0.2951040231584497  0.3628853579848010
  0.5740059152778140  0.0150462619137321  0.6401355023467244
 
  0.00000000E+00  0.00000000E+00  0.00000000E+00
  0.00000000E+00  0.00000000E+00  0.00000000E+00
  0.00000000E+00  0.00000000E+00  0.00000000E+00
  0.00000000E+00  0.00000000E+00  0.00000000E+00
  0.00000000E+00  0.00000000E+00  0.00000000E+00
  0.00000000E+00  0.00000000E+00  0.00000000E+00
  0.00000000E+00  0.00000000E+00  0.00000000E+00
  0.00000000E+00  0.00000000E+00  0.00000000E+00
  0.00000000E+00  0.00000000E+00  0.00000000E+00
  0.00000000E+00  0.00000000E+00  0.00000000E+00
