Sr2 Nb1 H10                             
   1.00000000000000     
     3.8316470160884677    0.1313780276754648   -0.6320671430047883
    -0.1681509148519522    5.8902580479761344   -0.2195779009181580
    -1.6269611588737083   -0.7458709209621984    6.7968064201285232
   Sr   Nb   H 
     2     1    10
Direct
  0.5379679231953156  0.5427839665745132  0.9603189565727881
  0.9015598049618947  0.0223973239128302  0.5706301898601863
  0.0856273594630347  0.0723483080318628  0.1279789350636778
  0.3812351981094619  0.6858849366853058  0.5474326715695662
  0.5597601659145632  0.6089856999104547  0.5853838908096077
  0.9257659284580941  0.4478659291265189  0.6843483863321023
  0.3874739079252476  0.8431012000507907  0.2247005842266062
  0.9325585453163967  0.8521672314342849  0.2370169399922879
  0.7878007606295201  0.1633380966598540  0.8727349366637724
  0.0003904591465877  0.8276029269567959  0.9120063298772774
  0.3006177349893734  0.1682552158874711  0.4201379480588106
  0.1377665775368328  0.3908246549087026  0.1622795730566663
  0.6096426343536839  0.1724015098606116  0.1592046579166433
 
  0.00000000E+00  0.00000000E+00  0.00000000E+00
  0.00000000E+00  0.00000000E+00  0.00000000E+00
  0.00000000E+00  0.00000000E+00  0.00000000E+00
  0.00000000E+00  0.00000000E+00  0.00000000E+00
  0.00000000E+00  0.00000000E+00  0.00000000E+00
  0.00000000E+00  0.00000000E+00  0.00000000E+00
  0.00000000E+00  0.00000000E+00  0.00000000E+00
  0.00000000E+00  0.00000000E+00  0.00000000E+00
  0.00000000E+00  0.00000000E+00  0.00000000E+00
  0.00000000E+00  0.00000000E+00  0.00000000E+00
  0.00000000E+00  0.00000000E+00  0.00000000E+00
  0.00000000E+00  0.00000000E+00  0.00000000E+00
  0.00000000E+00  0.00000000E+00  0.00000000E+00
