Sr1 Nb1 H11                             
   1.00000000000000     
     3.3409505544363793   -0.3245001386606541    0.0213801288480053
     0.3679914521805871    3.3757194518263121   -0.1457517045507332
     1.5478369609355358    0.3600093455061472    8.3104658478626376
   H    Nb   H    Sr
     7     1     4     1
Direct
  0.0857674806101970  0.1058057560591428  0.9166878103087992
  0.9705639047499812  0.6639587508665544  0.0256178518558178
  0.8169146698148659  0.0415841664190282  0.6951728318709197
  0.6306886645643665  0.0449250593790890  0.6563573542029771
  0.5634553141390954  0.5408962433345189  0.9175436851801556
  0.2508740584389609  0.5402863118949851  0.7446537219506493
  0.2275926310310830  0.5483244470845987  0.6570349691027781
  0.5623155823363731  0.0052873468604184  0.0417574482386517
  0.4339538504704487  0.0227655712268573  0.2556683927735012
  0.3283224466990426  0.0562335811974622  0.4744503416383160
  0.9722271091175224  0.1023033806767727  0.1586768305338611
  0.4471217305215611  0.5259481024332666  0.1592686200889012
  0.8657995575064951  0.5536912825673114  0.3803791422546732
 
  0.00000000E+00  0.00000000E+00  0.00000000E+00
  0.00000000E+00  0.00000000E+00  0.00000000E+00
  0.00000000E+00  0.00000000E+00  0.00000000E+00
  0.00000000E+00  0.00000000E+00  0.00000000E+00
  0.00000000E+00  0.00000000E+00  0.00000000E+00
  0.00000000E+00  0.00000000E+00  0.00000000E+00
  0.00000000E+00  0.00000000E+00  0.00000000E+00
  0.00000000E+00  0.00000000E+00  0.00000000E+00
  0.00000000E+00  0.00000000E+00  0.00000000E+00
  0.00000000E+00  0.00000000E+00  0.00000000E+00
  0.00000000E+00  0.00000000E+00  0.00000000E+00
  0.00000000E+00  0.00000000E+00  0.00000000E+00
  0.00000000E+00  0.00000000E+00  0.00000000E+00
