Sr1 Nb1 H9                              
   1.00000000000000     
     3.3106308998924256    0.2878476559721599    0.4175235579397207
    -0.2768913785829897    3.3429568091271644   -0.1344819493816613
    -0.7833831478380588   -1.4740220480355999    7.1046233828799679
   H    Nb   H    Sr
     7     1     2     1
Direct
  0.7005422703525807  0.1411355083737761  0.9647355115222097
  0.7163786999601526  0.0001239543504211  0.6838453296093306
  0.1037574783367030  0.9000475341668671  0.4841789179225437
  0.3357679580543909  0.8984971522924348  0.4789443068236501
  0.7082733161628562  0.4324446596280233  0.5485167874292446
  0.2064501572272969  0.6387113270139184  0.9664428657431550
  0.7058153987574338  0.6990267540779103  0.0842413571285882
  0.7068299434353387  0.5674183887900806  0.8174991432317433
  0.7097400364755493  0.8135224959321421  0.3158573261336701
  0.2053592749391799  0.5034219611681066  0.6816989625773412
  0.2066684662985098  0.2768352642063310  0.2414424918785394
 
  0.00000000E+00  0.00000000E+00  0.00000000E+00
  0.00000000E+00  0.00000000E+00  0.00000000E+00
  0.00000000E+00  0.00000000E+00  0.00000000E+00
  0.00000000E+00  0.00000000E+00  0.00000000E+00
  0.00000000E+00  0.00000000E+00  0.00000000E+00
  0.00000000E+00  0.00000000E+00  0.00000000E+00
  0.00000000E+00  0.00000000E+00  0.00000000E+00
  0.00000000E+00  0.00000000E+00  0.00000000E+00
  0.00000000E+00  0.00000000E+00  0.00000000E+00
  0.00000000E+00  0.00000000E+00  0.00000000E+00
  0.00000000E+00  0.00000000E+00  0.00000000E+00
