Sr2 Nb1 H8                              
   1.00000000000000     
     3.6293828513479425   -0.6298510990998915    0.6561731314936379
     1.0410029535443566    5.6707843882979372    0.0890643639874841
     2.4722449687282122   -0.9891960337258560    6.2902365212712441
   H    Nb   H    Sr
     5     1     3     2
Direct
  0.8808981685804839  0.7533941389130533  0.1166241545215236
  0.2688827399010045  0.1179117266020424  0.2588617475034094
  0.5578255395152174  0.3264065678001548  0.4679805969685958
  0.9783869033876945  0.3388223082604331  0.0264752579707787
  0.8790605385696662  0.6033207787505183  0.7495936326317560
  0.8183855503846014  0.0658806873052715  0.2096320777409335
  0.6751451030571857  0.6080161881629335  0.7474720997694195
  0.5718256936996042  0.8861703829287501  0.4830216251464238
  0.1581451334595249  0.9682056665831984  0.8982176319085187
  0.2476434969002684  0.5723814872661023  0.2600993881150064
  0.8309431325447363  0.1160840674275721  0.7162147877236424
 
  0.00000000E+00  0.00000000E+00  0.00000000E+00
  0.00000000E+00  0.00000000E+00  0.00000000E+00
  0.00000000E+00  0.00000000E+00  0.00000000E+00
  0.00000000E+00  0.00000000E+00  0.00000000E+00
  0.00000000E+00  0.00000000E+00  0.00000000E+00
  0.00000000E+00  0.00000000E+00  0.00000000E+00
  0.00000000E+00  0.00000000E+00  0.00000000E+00
  0.00000000E+00  0.00000000E+00  0.00000000E+00
  0.00000000E+00  0.00000000E+00  0.00000000E+00
  0.00000000E+00  0.00000000E+00  0.00000000E+00
  0.00000000E+00  0.00000000E+00  0.00000000E+00
