Sr1 Nb1 H17                             
   1.00000000000000     
     5.1034197152389202    0.0280311407229987   -0.0380951927049692
     0.2347373910217596    5.6702286752425888   -0.1813921253341881
     0.5333335987586951    0.2617361150645146    5.8095727773300059
   Sr   Nb   H 
     1     1    17
Direct
  0.2397915218515483  0.1469587734572900  0.6585114059374765
  0.7415661756433697  0.5713885655373594  0.8224792258555088
  0.2378104777365523  0.0776853330235987  0.1178664311550004
  0.1270639406560467  0.1734377301738133  0.1178469632234865
  0.4992158540242825  0.4546270540773273  0.0873454501548331
  0.3874755014291218  0.5072343715784315  0.0081369552038859
  0.8449300026733966  0.4068287609450441  0.0695813277131182
  0.6991122641832360  0.1368758056897175  0.3179762538586299
  0.8637225821753635  0.6962828722301139  0.1156747151891694
  0.8485681707580617  0.8168421085417531  0.0413977580638219
  0.0910341083935696  0.5308087096045147  0.8177097913580226
  0.3098250631826400  0.8093880333988127  0.3089189462838072
  0.3645178896014610  0.7382192293468743  0.4074973755111375
  0.7166284517110065  0.0273728710601727  0.3910020998679911
  0.5170411643617603  0.5033288944435235  0.6034293875177911
  0.8986353103652045  0.8124943801963258  0.6542435121646898
  0.7328601458821510  0.2536203470207665  0.7876716651805145
  0.5007475831594898  0.8295842973107699  0.8383310660457814
  0.9030757922117415  0.4785858623637916  0.5536016697153294
 
  0.00000000E+00  0.00000000E+00  0.00000000E+00
  0.00000000E+00  0.00000000E+00  0.00000000E+00
  0.00000000E+00  0.00000000E+00  0.00000000E+00
  0.00000000E+00  0.00000000E+00  0.00000000E+00
  0.00000000E+00  0.00000000E+00  0.00000000E+00
  0.00000000E+00  0.00000000E+00  0.00000000E+00
  0.00000000E+00  0.00000000E+00  0.00000000E+00
  0.00000000E+00  0.00000000E+00  0.00000000E+00
  0.00000000E+00  0.00000000E+00  0.00000000E+00
  0.00000000E+00  0.00000000E+00  0.00000000E+00
  0.00000000E+00  0.00000000E+00  0.00000000E+00
  0.00000000E+00  0.00000000E+00  0.00000000E+00
  0.00000000E+00  0.00000000E+00  0.00000000E+00
  0.00000000E+00  0.00000000E+00  0.00000000E+00
  0.00000000E+00  0.00000000E+00  0.00000000E+00
  0.00000000E+00  0.00000000E+00  0.00000000E+00
  0.00000000E+00  0.00000000E+00  0.00000000E+00
  0.00000000E+00  0.00000000E+00  0.00000000E+00
  0.00000000E+00  0.00000000E+00  0.00000000E+00
