Sr2 Nb1 H8                              
   1.00000000000000     
     3.3777743516620551    0.2919731452461677    0.1243454352987584
    -0.5396904968618339    6.2548154651526486    0.2943335340804271
    -0.1752564360664097   -0.6540899873668667    6.1952683248062685
   Sr   Nb   H 
     2     1     8
Direct
  0.2569279122929830  0.7052447663871484  0.6188735250379243
  0.2560410903855574  0.0851439077964621  0.2267472264710709
  0.7571209787865527  0.5706588687267937  0.1047270582442308
  0.7556537559608992  0.0060055931845815  0.5319145366586968
  0.7568191220453960  0.7733838007546020  0.3135754271827083
  0.7560211030594081  0.8071177526511355  0.9182313998845357
  0.2570576900521919  0.6718207482117353  0.2091558534990046
  0.3569571259670023  0.0931714248255933  0.7849068565167908
  0.1345400315415842  0.0906724190372891  0.7779616034015605
  0.7572371548607509  0.3805916034574621  0.3381861308173929
  0.2580030350476621  0.4364391149671957  0.9592743822860870
 
  0.00000000E+00  0.00000000E+00  0.00000000E+00
  0.00000000E+00  0.00000000E+00  0.00000000E+00
  0.00000000E+00  0.00000000E+00  0.00000000E+00
  0.00000000E+00  0.00000000E+00  0.00000000E+00
  0.00000000E+00  0.00000000E+00  0.00000000E+00
  0.00000000E+00  0.00000000E+00  0.00000000E+00
  0.00000000E+00  0.00000000E+00  0.00000000E+00
  0.00000000E+00  0.00000000E+00  0.00000000E+00
  0.00000000E+00  0.00000000E+00  0.00000000E+00
  0.00000000E+00  0.00000000E+00  0.00000000E+00
  0.00000000E+00  0.00000000E+00  0.00000000E+00
