pymatgen with grid density = 2073 / number of atoms
0
Gamma
4 5 4
