Sr1 Nb1 H11                             
   1.00000000000000     
     3.6437359013385935    0.3227406491053301    0.2917688534750793
    -0.3814281180141076    5.2860169494391887    0.1706602333091339
    -0.4363481251674459   -2.2156591859992329    5.0244285900905989
   H    Nb   H    Sr
     6     1     5     1
Direct
  0.1031935359357308  0.2838603590730312  0.0717201668556225
  0.0742652958295265  0.1634390689939402  0.9462099704167078
  0.5587884664635443  0.2877659590738381  0.7637087986139668
  0.5726134094042818  0.4200037852674108  0.8933020124819891
  0.0295571389587290  0.5867683581981750  0.8310888349124220
  0.9612327580823309  0.8482178435013608  0.6665455516160463
  0.6382267142366825  0.5916307783322459  0.6232123076570257
  0.4789416470038749  0.9130916980318760  0.6312639861860851
  0.6265575758967532  0.6123720287263924  0.2971555140846429
  0.5698020372954745  0.8341872393572117  0.9602814446462371
  0.0734082519656582  0.4607718575789325  0.4622763471203810
  0.5871702356786359  0.2379493211051243  0.3791218471020233
  0.0911719332487883  0.9236437027604621  0.2658992183068307
 
  0.00000000E+00  0.00000000E+00  0.00000000E+00
  0.00000000E+00  0.00000000E+00  0.00000000E+00
  0.00000000E+00  0.00000000E+00  0.00000000E+00
  0.00000000E+00  0.00000000E+00  0.00000000E+00
  0.00000000E+00  0.00000000E+00  0.00000000E+00
  0.00000000E+00  0.00000000E+00  0.00000000E+00
  0.00000000E+00  0.00000000E+00  0.00000000E+00
  0.00000000E+00  0.00000000E+00  0.00000000E+00
  0.00000000E+00  0.00000000E+00  0.00000000E+00
  0.00000000E+00  0.00000000E+00  0.00000000E+00
  0.00000000E+00  0.00000000E+00  0.00000000E+00
  0.00000000E+00  0.00000000E+00  0.00000000E+00
  0.00000000E+00  0.00000000E+00  0.00000000E+00
