H17
1.0
2.815181 0.042765 -0.006736
-0.165057 4.657809 0.081235
-0.103624 -1.035870 7.732253
H
17
direct
0.816723 0.204254 0.685931 H
0.919329 0.327202 0.745148 H
0.329353 0.928255 0.431266 H
0.322002 0.047070 0.504054 H
0.283122 0.459545 0.522945 H
0.503484 0.547482 0.544671 H
0.493998 0.523229 0.256325 H
0.825693 0.524694 0.271310 H
0.157192 0.523950 0.255282 H
0.008277 0.776231 0.692735 H
0.836057 0.788049 0.764527 H
0.857928 0.550811 0.982192 H
0.607505 0.596973 0.991913 H
0.773545 0.033823 0.240994 H
0.936328 0.000899 0.167200 H
0.278531 0.065155 0.911477 H
0.452397 0.098266 0.984899 H
