Sr1 Nb1 H13                             
   1.00000000000000     
     3.7122497158975718   -0.3181656334314427   -0.5098545355196940
     0.5336770385925276    5.0550674465356336    0.3407794104761828
    -0.1524516885960407    1.6453924075856761    5.9153906777416339
   H    Nb   H    Sr   H 
     7     1     5     1     1
Direct
  0.8873104977143914  0.4563744878269814  0.1848075741578075
  0.8593602611404293  0.4758966879652233  0.0538172269206108
  0.2323581725211864  0.2993734260047693  0.8360020644143837
  0.0995941931548635  0.0560670759622248  0.5054934457025970
  0.8947445929129689  0.0037709948057614  0.4609394555800048
  0.4325622636490998  0.1823936482574992  0.2706962322724803
  0.3902079040976303  0.3008124126545330  0.1557651594862222
  0.1945292089220804  0.6510658878061648  0.6091562842182583
  0.3036469827701734  0.3819973186967595  0.5019894606607670
  0.4626976125132207  0.9401496310589631  0.6027698234040331
  0.8511157269417378  0.6398742052996687  0.3763876058699501
  0.3111437219257090  0.7798517991977232  0.3171360967212253
  0.2314622486294879  0.7387127516593870  0.8922761882004144
  0.7561376560042382  0.9867137673795408  0.9892182102565849
  0.7194299571027668  0.5433249054247887  0.7083721721346743
 
  0.00000000E+00  0.00000000E+00  0.00000000E+00
  0.00000000E+00  0.00000000E+00  0.00000000E+00
  0.00000000E+00  0.00000000E+00  0.00000000E+00
  0.00000000E+00  0.00000000E+00  0.00000000E+00
  0.00000000E+00  0.00000000E+00  0.00000000E+00
  0.00000000E+00  0.00000000E+00  0.00000000E+00
  0.00000000E+00  0.00000000E+00  0.00000000E+00
  0.00000000E+00  0.00000000E+00  0.00000000E+00
  0.00000000E+00  0.00000000E+00  0.00000000E+00
  0.00000000E+00  0.00000000E+00  0.00000000E+00
  0.00000000E+00  0.00000000E+00  0.00000000E+00
  0.00000000E+00  0.00000000E+00  0.00000000E+00
  0.00000000E+00  0.00000000E+00  0.00000000E+00
  0.00000000E+00  0.00000000E+00  0.00000000E+00
  0.00000000E+00  0.00000000E+00  0.00000000E+00
