H16                                     
   1.00000000000000     
     4.4145411077079748    0.1300715516768486    0.0423248781534620
    -0.0603826006528392    4.8531939337706973   -0.0497362573084778
    -1.1582510547397311   -2.4464546905150950    4.6215730088048028
   H 
    16
Direct
  0.5475543035645349  0.4642107175017866  0.8029538037696499
  0.4584213377062723  0.6032078842558063  0.8359840811440665
  0.6729415181239552  0.8165641708727830  0.6591076291759078
  0.6567252515708817  0.9867414672605643  0.7293754548180557
  0.8559896738342048  0.8096227138953828  0.3577921088230901
  0.9726190816541316  0.2831396987881743  0.6399924953658925
  0.9965273914957687  0.4106530323688725  0.7922139788840704
  0.1756354891506102  0.9666929261698820  0.8061429281667304
  0.3691788315671756  0.9892759945230639  0.3518594249633633
  0.7864885549480686  0.1840529212000119  0.2120563179990820
  0.2842914897602076  0.5409784250396312  0.2871716106205990
  0.8664639382532935  0.3141960437275221  0.2057409941023866
  0.2439369481843468  0.9719202144726536  0.9488425993725588
  0.3639073702007170  0.1562034731153614  0.3846781619036495
  0.3968566704937143  0.4844512628647899  0.1927407151200753
  0.8675481494920994  0.7664860539437045  0.2071616957708033
 
  0.00000000E+00  0.00000000E+00  0.00000000E+00
  0.00000000E+00  0.00000000E+00  0.00000000E+00
  0.00000000E+00  0.00000000E+00  0.00000000E+00
  0.00000000E+00  0.00000000E+00  0.00000000E+00
  0.00000000E+00  0.00000000E+00  0.00000000E+00
  0.00000000E+00  0.00000000E+00  0.00000000E+00
  0.00000000E+00  0.00000000E+00  0.00000000E+00
  0.00000000E+00  0.00000000E+00  0.00000000E+00
  0.00000000E+00  0.00000000E+00  0.00000000E+00
  0.00000000E+00  0.00000000E+00  0.00000000E+00
  0.00000000E+00  0.00000000E+00  0.00000000E+00
  0.00000000E+00  0.00000000E+00  0.00000000E+00
  0.00000000E+00  0.00000000E+00  0.00000000E+00
  0.00000000E+00  0.00000000E+00  0.00000000E+00
  0.00000000E+00  0.00000000E+00  0.00000000E+00
  0.00000000E+00  0.00000000E+00  0.00000000E+00
