pymatgen with grid density = 2012 / number of atoms
0
Gamma
7 3 3
