Sr2 Nb1 H20
1.0
6.360777 -0.220145 -0.771678
-0.638136 5.053586 -0.661798
-2.579579 -1.015103 6.294214
Sr Nb H
2 1 20
direct
0.579471 0.083292 0.087601 Sr
0.882478 0.400192 0.818594 Sr
0.512550 0.727139 0.441988 Nb
0.130805 0.049211 0.956538 H
0.198454 0.178676 0.070336 H
0.961554 0.320995 0.165724 H
0.234410 0.649802 0.739488 H
0.131558 0.719749 0.691850 H
0.909393 0.865583 0.101761 H
0.817167 0.735684 0.087779 H
0.837484 0.858679 0.677429 H
0.276055 0.906116 0.486510 H
0.196453 0.831726 0.346151 H
0.398114 0.448721 0.562305 H
0.663835 0.455263 0.421206 H
0.176953 0.231065 0.658044 H
0.046054 0.127958 0.576174 H
0.279535 0.399565 0.420179 H
0.535303 0.441250 0.881536 H
0.562656 0.957684 0.712534 H
0.582463 0.077251 0.440832 H
0.318151 0.694554 0.126838 H
0.714608 0.784976 0.335569 H
