Sr1 Nb2 H7                              
   1.00000000000000     
     3.2997740844854788   -0.1230057379956751   -0.5160859854905862
     0.1696118746786333    3.4090416422950311    0.2142263331760848
    -0.3565569784365235    1.4273311707705039    7.8334278946460092
   H    Nb   H    Sr   H    Nb
     3     1     1     1     3     1
Direct
  0.0175311523835199  0.2942672833356125  0.0054854084856947
  0.5929099751387376  0.0367674234407032  0.1562808949935264
  0.0980183227017671  0.6566302893020274  0.1501858910977302
  0.5443809795412224  0.6064634664189539  0.0408672955593543
  0.8432465404056427  0.8037663581304567  0.6350208288234709
  0.2202873433819358 -0.0743993636239888  0.3953655199278420
  0.6830158513080309  0.4708055462113971  0.3089038030666597
  0.3378069825903847  0.2809724243201361  0.6259107414867990
  0.4329682018096282  0.5345171603524679  0.8059714704657911
  0.9151546507391287  0.2340564121122228  0.7766551460931245
 
  0.00000000E+00  0.00000000E+00  0.00000000E+00
  0.00000000E+00  0.00000000E+00  0.00000000E+00
  0.00000000E+00  0.00000000E+00  0.00000000E+00
  0.00000000E+00  0.00000000E+00  0.00000000E+00
  0.00000000E+00  0.00000000E+00  0.00000000E+00
  0.00000000E+00  0.00000000E+00  0.00000000E+00
  0.00000000E+00  0.00000000E+00  0.00000000E+00
  0.00000000E+00  0.00000000E+00  0.00000000E+00
  0.00000000E+00  0.00000000E+00  0.00000000E+00
  0.00000000E+00  0.00000000E+00  0.00000000E+00
