H18
1.0
4.235059 -0.451069 -0.520159
0.559028 4.714817 0.520084
0.387868 1.981502 5.668723
H
18
direct
0.176760 0.759156 0.721843 H
0.167128 0.815158 0.819932 H
0.106353 0.284855 0.804759 H
0.269394 0.256472 0.783831 H
0.745296 0.592390 0.612783 H
0.620648 0.597444 0.690818 H
0.496440 0.144772 0.534657 H
0.446276 0.168942 0.406374 H
0.019168 0.406519 0.377120 H
0.873985 0.510838 0.326349 H
0.999673 0.968537 0.254139 H
0.903477 0.024723 0.327986 H
0.374812 0.696074 0.242158 H
0.456494 0.834719 0.243887 H
0.702687 0.014167 0.929599 H
0.734614 0.918304 0.864073 H
0.634130 0.387177 0.076833 H
0.463132 0.407989 0.038686 H
