Sr1 Nb5 H17
1.0
3.323849 -0.016407 -0.407390
-0.036438 6.655885 0.421328
-2.261698 -0.933775 8.523966
Sr Nb H
1 5 17
direct
0.339285 0.078624 0.792329 Sr
0.700035 0.855235 0.174316 Nb
0.491788 0.659072 0.450458 Nb
0.757634 0.410474 0.205029 Nb
0.454080 0.144648 0.410037 Nb
0.921253 0.598596 0.900546 Nb
0.322932 0.876623 0.302898 H
0.059686 0.136882 0.518204 H
0.741006 0.408418 0.440247 H
0.200378 0.405143 0.426843 H
0.549043 0.613409 0.042464 H
0.275858 0.585058 0.224607 H
0.787335 0.357111 0.999444 H
0.242223 0.260256 0.193118 H
0.068461 0.870341 0.039949 H
0.905312 0.339908 0.823648 H
0.674662 0.212045 0.624713 H
0.312824 0.577738 0.793523 H
0.814493 0.830457 0.791133 H
0.700328 0.552083 0.673392 H
0.820959 0.123402 0.276116 H
0.088808 0.711979 0.547982 H
0.594018 0.925179 0.553754 H
