H15
1.0
4.263508 -0.000000 0.000000
-1.859816 4.193953 -0.000000
-0.194846 -1.383550 4.998561
H
15
direct
0.386714 0.336372 0.675658 H
0.265208 0.162496 0.635187 H
0.025113 0.857527 0.275272 H
0.865666 0.705678 0.231842 H
0.810572 0.250384 0.834615 H
0.899552 0.315846 0.971889 H
0.524049 0.849090 0.008377 H
0.348830 0.720096 0.992758 H
0.879106 0.307656 0.450610 H
0.732736 0.180508 0.353990 H
0.326825 0.670971 0.467164 H
0.472456 0.807051 0.558242 H
0.343988 0.241081 0.070302 H
0.366494 0.338653 0.207708 H
0.945640 0.790492 0.821791 H
