Sr2 Nb1 H13                             
   1.00000000000000     
     5.0274711833530557   -0.0023980546915910    0.0003613674043544
    -0.2662437774607076    5.1100367305572050    0.0279339105137107
    -0.1328436263881247   -1.7729694324392706    5.7973754527720356
   H    Nb   H    Sr
     6     1     7     2
Direct
  0.5492867566423392  0.8428881431542213  0.7634475769230439
  0.4249446234454623  0.7334424556360561  0.7798713186119104
  0.7880322591655593  0.7874023906449386  0.0233805265488631
  0.7663059010910492  0.6677715427635865  0.0738888090610092
  0.0474280077559119  0.0161763887813296  0.3977521611466481
  0.9831623454232703  0.6209228228376019  0.3956721918940238
  0.2841192970313862  0.8191136954289063  0.5115641133332830
  0.5277647947653029  0.0250797701115947  0.3947565296731599
  0.2673371960029648  0.4798306910365255  0.5498367721591263
  0.5688512743427586  0.6155946657338011  0.4080591182006565
  0.0409552803473343  0.8472396028448623  0.7447253104439590
  0.7769742766981663  0.2352366058825286  0.0221259468904687
  0.2713296507775957  0.6978745028966178  0.1919286256585600
  0.3183580716412087  0.1676364171550861  0.7170382299553751
  0.2742860502807553  0.1911728268105124  0.1223894804036626
  0.8121442145889305  0.3571514782818250  0.6577082890962377
 
  0.00000000E+00  0.00000000E+00  0.00000000E+00
  0.00000000E+00  0.00000000E+00  0.00000000E+00
  0.00000000E+00  0.00000000E+00  0.00000000E+00
  0.00000000E+00  0.00000000E+00  0.00000000E+00
  0.00000000E+00  0.00000000E+00  0.00000000E+00
  0.00000000E+00  0.00000000E+00  0.00000000E+00
  0.00000000E+00  0.00000000E+00  0.00000000E+00
  0.00000000E+00  0.00000000E+00  0.00000000E+00
  0.00000000E+00  0.00000000E+00  0.00000000E+00
  0.00000000E+00  0.00000000E+00  0.00000000E+00
  0.00000000E+00  0.00000000E+00  0.00000000E+00
  0.00000000E+00  0.00000000E+00  0.00000000E+00
  0.00000000E+00  0.00000000E+00  0.00000000E+00
  0.00000000E+00  0.00000000E+00  0.00000000E+00
  0.00000000E+00  0.00000000E+00  0.00000000E+00
  0.00000000E+00  0.00000000E+00  0.00000000E+00
