pymatgen with grid density = 2688 / number of atoms
0
Gamma
9 4 4
