Sr1 Nb1 H13                             
   1.00000000000000     
     3.9000909101468473   -0.0225274071831431   -0.0167925469257879
     0.0637643537456405    5.7889460044427992   -0.0245522008434973
     0.1028788777080944    1.9786726166377591    5.3346128787055518
   Sr   Nb   H 
     1     1    13
Direct
  0.2710948505226791  0.1980892338298693  0.0195848401377747
  0.6636633980987180  0.5660982356879767  0.3742918268498155
  0.6817579068320975  0.7806852949822255  0.5889440424491355
  0.7964224611158279  0.8641290879979570  0.4746292156901569
  0.9258564745256309  0.6047119637289169  0.9168430500012792
  0.1102472600034907  0.6316430231895985  0.8708176832543688
  0.5084439703293504  0.5957233176536398  0.0733192874670957
  0.2984941232895988  0.0629075117574198  0.6273562469223204
  0.2380297149052574  0.9399606861905220  0.7152213025123985
  0.7648320420408311  0.8714908527998277  0.1271977121252489
  0.7808763787491945  0.3058760033252992  0.6851917383274021
  0.7537227979327971  0.2848977580767990  0.2929153771581809
  0.2672299477672572  0.3969886083560499  0.3879397966490691
  0.3943148933643835  0.5517468761860691  0.6288821636333020
  0.2798147805228829  0.7535725462378371  0.2992887168224506
 
  0.00000000E+00  0.00000000E+00  0.00000000E+00
  0.00000000E+00  0.00000000E+00  0.00000000E+00
  0.00000000E+00  0.00000000E+00  0.00000000E+00
  0.00000000E+00  0.00000000E+00  0.00000000E+00
  0.00000000E+00  0.00000000E+00  0.00000000E+00
  0.00000000E+00  0.00000000E+00  0.00000000E+00
  0.00000000E+00  0.00000000E+00  0.00000000E+00
  0.00000000E+00  0.00000000E+00  0.00000000E+00
  0.00000000E+00  0.00000000E+00  0.00000000E+00
  0.00000000E+00  0.00000000E+00  0.00000000E+00
  0.00000000E+00  0.00000000E+00  0.00000000E+00
  0.00000000E+00  0.00000000E+00  0.00000000E+00
  0.00000000E+00  0.00000000E+00  0.00000000E+00
  0.00000000E+00  0.00000000E+00  0.00000000E+00
  0.00000000E+00  0.00000000E+00  0.00000000E+00
