Sr1 Nb5 H15                             
   1.00000000000000     
     4.9913715840168660   -0.0166874850518046    0.0351385433945393
    -0.0800622951111577    5.7399262994117288    0.0023214901859227
     0.0152068208265247   -0.0843752456620714    6.3169513015145391
   Sr   H    Nb   H    Nb   H    Nb   H 
     1     5     2     4     2     1     1     5
Direct
  0.5480835668409835  0.8065712939943034  0.8559821028642481
  0.6024001540054894  0.7851676738871752  0.1875180723141697
  0.9086049750119717  0.5831503363435417  0.1803882628555995
  0.2988793835292259  0.5751906454285427  0.1593368673247101
  0.7473795717439755  0.8294885341056943  0.5261756446640807
  0.8921903441515708  0.5691181013023948  0.5816675266721646
  0.5836432084523874  0.0513768839547696  0.3579398441671679
  0.0820308588026173  0.2900989201284951  0.6289509527018969
  0.9810379179477242  0.4773707805246203  0.8767409740498148
  0.3106647918803409  0.2906921154075109  0.3705576150789397
  0.7004645886171684  0.2666418607445646  0.5854265627201146
  0.9479898902102610  0.1037368835493565  0.8676662626632403
  0.0788549579787272  0.2851299686935012  0.1111678681810938
  0.5908583430976663  0.5342517800477548  0.3657619365957847
  0.3298995834635282  0.2644820645296389  0.8694184958974388
  0.0932018108399498  0.7889642339355545  0.3923308288165657
  0.3088551271615923  0.5745258432885059  0.5889821239414211
  0.9036159131428284  0.9915712019312707  0.1845800219181790
  0.6799744936564531  0.2912100745242163  0.1426974597057924
  0.2838135575516831  0.9938044997896034  0.1582533690685212
  0.2894679619138804  0.0003343038889607  0.5857652077990371
 
  0.00000000E+00  0.00000000E+00  0.00000000E+00
  0.00000000E+00  0.00000000E+00  0.00000000E+00
  0.00000000E+00  0.00000000E+00  0.00000000E+00
  0.00000000E+00  0.00000000E+00  0.00000000E+00
  0.00000000E+00  0.00000000E+00  0.00000000E+00
  0.00000000E+00  0.00000000E+00  0.00000000E+00
  0.00000000E+00  0.00000000E+00  0.00000000E+00
  0.00000000E+00  0.00000000E+00  0.00000000E+00
  0.00000000E+00  0.00000000E+00  0.00000000E+00
  0.00000000E+00  0.00000000E+00  0.00000000E+00
  0.00000000E+00  0.00000000E+00  0.00000000E+00
  0.00000000E+00  0.00000000E+00  0.00000000E+00
  0.00000000E+00  0.00000000E+00  0.00000000E+00
  0.00000000E+00  0.00000000E+00  0.00000000E+00
  0.00000000E+00  0.00000000E+00  0.00000000E+00
  0.00000000E+00  0.00000000E+00  0.00000000E+00
  0.00000000E+00  0.00000000E+00  0.00000000E+00
  0.00000000E+00  0.00000000E+00  0.00000000E+00
  0.00000000E+00  0.00000000E+00  0.00000000E+00
  0.00000000E+00  0.00000000E+00  0.00000000E+00
  0.00000000E+00  0.00000000E+00  0.00000000E+00
