Sr2 Nb1 H8                              
   1.00000000000000     
     3.5940574138458565    0.0003366393366638   -0.0024337443819183
     0.0205528794259225    5.9368544361101598   -0.7654377438306317
     0.0257328084740437    0.3363482931964205    5.9768358266525432
   H    Nb   H    Sr   H 
     2     1     5     2     1
Direct
  0.0513896601255100  0.2667254991851188  0.7470060223450981
  0.0513869043298509  0.0388953221656182  0.9753177360984584
  0.0890830455912362  0.3404135772334742  0.0485180625847692
  0.0762434350898449  0.6125458692199521  0.8993547242996215
  0.0761642087968346  0.1915622159096742  0.3209558071402735
  0.5855707530773143  0.8196507199704930  0.5277512103917139
  0.5390974753946108  0.4498033333139810  0.1579650074870905
  0.5303786595699305  0.2191320895785376  0.9273595736617458
  0.5585170775293687  0.8524294547714530  0.1356269600053482
  0.5586364443303753  0.4276033487070709  0.5606450991617006
  0.0437433361651344  0.5724605699446319  0.2803517968241735
 
  0.00000000E+00  0.00000000E+00  0.00000000E+00
  0.00000000E+00  0.00000000E+00  0.00000000E+00
  0.00000000E+00  0.00000000E+00  0.00000000E+00
  0.00000000E+00  0.00000000E+00  0.00000000E+00
  0.00000000E+00  0.00000000E+00  0.00000000E+00
  0.00000000E+00  0.00000000E+00  0.00000000E+00
  0.00000000E+00  0.00000000E+00  0.00000000E+00
  0.00000000E+00  0.00000000E+00  0.00000000E+00
  0.00000000E+00  0.00000000E+00  0.00000000E+00
  0.00000000E+00  0.00000000E+00  0.00000000E+00
  0.00000000E+00  0.00000000E+00  0.00000000E+00
