pymatgen with grid density = 1609 / number of atoms
0
Gamma
6 4 3
