Sr1 Nb1 H19                             
   1.00000000000000     
     5.0269608440389106    0.5599241926286621    0.0905293424128632
    -0.9093396741713539    5.1437744587292249    0.1642659538431973
    -2.0339963425830505   -2.5905543504753488    6.7652467372884182
   Sr   Nb   H 
     1     1    19
Direct
  0.7877331574779699  0.6923092383141008  0.5713791704809593
  0.2266879850951232  0.1106891643317340  0.4488512082463312
  0.5983632435814693  0.8703883813058476  0.9709800280434991
  0.5215354808822713  0.9248608050873053  0.8902777166862226
  0.4933008176401166  0.3932385165522625  0.0803421673054839
  0.5910857331311997  0.5090991559124598  0.0808539453647639
  0.2628640092356756  0.8173135650669446  0.2200130559260766
  0.3791841157813755  0.9352130104914668  0.2277535404804925
  0.4541705522931038  0.3073901766556570  0.3624660310791907
  0.0419294223727786  0.2893441760857940  0.2416621152185654
  0.9177978101505511  0.2494837155593093  0.2812531916930830
  0.9178019336668707  0.2000639891294423  0.5048554467295644
  0.0952514176645252  0.0821068051495936  0.8946091524260195
  0.0177980821742050  0.0368631588479511  0.9569269936872249
  0.2234815566793355  0.1049826601539137  0.6849105766725304
  0.5757497442381401  0.1309353683966382  0.6179309228207772
  0.3049562433380147  0.4504405336650379  0.6206566439708815
  0.9148546164792380  0.8471652077360590  0.3062298938586645
  0.2826669567243824  0.7900002577736277  0.4891836334909285
  0.9255592764902203  0.5236385636546552  0.9112456238329620
  0.0560158449034408  0.5063775501301916  0.8819739419857918
 
  0.00000000E+00  0.00000000E+00  0.00000000E+00
  0.00000000E+00  0.00000000E+00  0.00000000E+00
  0.00000000E+00  0.00000000E+00  0.00000000E+00
  0.00000000E+00  0.00000000E+00  0.00000000E+00
  0.00000000E+00  0.00000000E+00  0.00000000E+00
  0.00000000E+00  0.00000000E+00  0.00000000E+00
  0.00000000E+00  0.00000000E+00  0.00000000E+00
  0.00000000E+00  0.00000000E+00  0.00000000E+00
  0.00000000E+00  0.00000000E+00  0.00000000E+00
  0.00000000E+00  0.00000000E+00  0.00000000E+00
  0.00000000E+00  0.00000000E+00  0.00000000E+00
  0.00000000E+00  0.00000000E+00  0.00000000E+00
  0.00000000E+00  0.00000000E+00  0.00000000E+00
  0.00000000E+00  0.00000000E+00  0.00000000E+00
  0.00000000E+00  0.00000000E+00  0.00000000E+00
  0.00000000E+00  0.00000000E+00  0.00000000E+00
  0.00000000E+00  0.00000000E+00  0.00000000E+00
  0.00000000E+00  0.00000000E+00  0.00000000E+00
  0.00000000E+00  0.00000000E+00  0.00000000E+00
  0.00000000E+00  0.00000000E+00  0.00000000E+00
  0.00000000E+00  0.00000000E+00  0.00000000E+00
