Sr1 Nb1 H8                              
   1.00000000000000     
     3.3227200387888516    0.6807276791724814   -0.1099315202693200
    -0.7367739610492979    3.9512798052104467    0.3985994620449673
     0.0641287380629263    1.3778850423707716    6.3079419675037682
   Sr   Nb   H 
     1     1     8
Direct
  0.1654965119989179  0.5135149661950436  0.8397067452523590
  0.7026338503274933  0.1956778749473071  0.4151943879820970
  0.6588479808666498  0.3015998154282993  0.1038784749132531
  0.1552753297221022  0.3361946334497816  0.5310821309393758
  0.6661538046981128  0.0067965174655330  0.7363952928616390
  0.0919328971997192  0.8969166603641843  0.0839952312690668
  0.1423563070941271  0.3777217126126950  0.2535609691649684
  0.3163183927356370  0.9133677157468586  0.0595042779755020
  0.6738595762303583  0.7089423946183273  0.3714440986071611
  0.1456773491268851  0.9140027091719706  0.4830483910345820
 
  0.00000000E+00  0.00000000E+00  0.00000000E+00
  0.00000000E+00  0.00000000E+00  0.00000000E+00
  0.00000000E+00  0.00000000E+00  0.00000000E+00
  0.00000000E+00  0.00000000E+00  0.00000000E+00
  0.00000000E+00  0.00000000E+00  0.00000000E+00
  0.00000000E+00  0.00000000E+00  0.00000000E+00
  0.00000000E+00  0.00000000E+00  0.00000000E+00
  0.00000000E+00  0.00000000E+00  0.00000000E+00
  0.00000000E+00  0.00000000E+00  0.00000000E+00
  0.00000000E+00  0.00000000E+00  0.00000000E+00
