H15                                     
   1.00000000000000     
     3.0575773917911198    0.0117185942210456    0.0692231691805815
    -0.5552606097203996    4.4317044681223789   -0.3643994554099557
    -0.6847964370217406   -1.2619775266582807    9.0654413548046371
   H 
    15
Direct
  0.6594306686157282  0.2398758371405375  0.2600350736793886
  0.4588103684307002  0.2513603544395688  0.2120657777784289
  0.8885312987976459  0.7095356218295461  0.1000561586023748
  0.5528490622349898  0.6962428798474224  0.0953783552726980
  0.2192763883065660  0.6941464733261997  0.0962363695769867
  0.5575595078910984  0.1273777060078556  0.9062634801669956
  0.7551263226510526  0.1485822032243397  0.9611161709613341
  0.2026975129793201  0.5967640519217552  0.8368753573173530
  0.9841675242500325  0.5973219855540417  0.7961707558285488
  0.5249006814124340  0.3501634874266036  0.5451166364606821
  0.7294685308909437  0.4520437845285868  0.5349487570871848
  0.0368751742482401  0.0816825720559095  0.6922744979442195
  0.1108883584341351  0.9566354343134629  0.6352065285622115
  0.1130921967467975  0.7256355476311510  0.3761072600931420
  0.3276894041103186  0.8310190607530212  0.3852378206684615
 
  0.00000000E+00  0.00000000E+00  0.00000000E+00
  0.00000000E+00  0.00000000E+00  0.00000000E+00
  0.00000000E+00  0.00000000E+00  0.00000000E+00
  0.00000000E+00  0.00000000E+00  0.00000000E+00
  0.00000000E+00  0.00000000E+00  0.00000000E+00
  0.00000000E+00  0.00000000E+00  0.00000000E+00
  0.00000000E+00  0.00000000E+00  0.00000000E+00
  0.00000000E+00  0.00000000E+00  0.00000000E+00
  0.00000000E+00  0.00000000E+00  0.00000000E+00
  0.00000000E+00  0.00000000E+00  0.00000000E+00
  0.00000000E+00  0.00000000E+00  0.00000000E+00
  0.00000000E+00  0.00000000E+00  0.00000000E+00
  0.00000000E+00  0.00000000E+00  0.00000000E+00
  0.00000000E+00  0.00000000E+00  0.00000000E+00
  0.00000000E+00  0.00000000E+00  0.00000000E+00
