Sr1 Nb1 H7                              
   1.00000000000000     
     3.7326373759970566   -0.3078520457312270   -0.0814807956257338
     0.6501076316366499    5.2418820088540903   -0.2141451042649940
     0.2459320712800148    0.2365465689231918    3.7337358276831289
   H    Nb   H    Sr   H 
     2     1     4     1     1
Direct
  0.6259079325444661  0.9316768026134166  0.2480445879193076
  0.7437229076991518  0.5623079913057499  0.2150617971796042
  0.2776606060077589  0.7070436804396549  0.2820312853950384
  0.1468660441865685 -0.0586492753385894  0.5933916670258976
  0.2613832416414274  0.3570839130972068  0.2527271060100731
  0.1298865580043045  0.0103387736079013  0.0905399522157204
  0.5390826615297155  0.7190119441852314  0.6825238456912315
  0.6718854196697684  0.2148090191793924 -0.2605198520031740
  0.1028786287168387  0.5649241509100438  0.7058586105662971
 
  0.00000000E+00  0.00000000E+00  0.00000000E+00
  0.00000000E+00  0.00000000E+00  0.00000000E+00
  0.00000000E+00  0.00000000E+00  0.00000000E+00
  0.00000000E+00  0.00000000E+00  0.00000000E+00
  0.00000000E+00  0.00000000E+00  0.00000000E+00
  0.00000000E+00  0.00000000E+00  0.00000000E+00
  0.00000000E+00  0.00000000E+00  0.00000000E+00
  0.00000000E+00  0.00000000E+00  0.00000000E+00
  0.00000000E+00  0.00000000E+00  0.00000000E+00
