Sr1 Nb1 H7
1.0
3.787326 0.000000 0.000000
1.167156 4.595362 -0.000000
0.619433 0.188735 5.002494
H Nb H Sr H
2 1 4 1 1
direct
0.731838 0.899524 0.254487 H
0.748346 0.581048 0.298253 H
0.276788 0.740568 0.253789 Nb
0.301478 0.017555 0.375078 H
0.262910 0.417591 0.313687 H
0.143238 0.000966 0.038105 H
0.417528 0.664880 0.554961 H
0.665496 0.285392 0.084951 Sr
0.951652 0.401023 0.636348 H
