Sr1 Nb2 H8                              
   1.00000000000000     
     3.2853328716720442   -0.1485868703494467    0.3673056572477950
    -0.1903410145953498    4.9259011822791905   -0.2592635492726292
     0.0636062408422620   -1.4450106155711084    6.1487568013522385
   H    Nb   H    Sr
     3     2     5     1
Direct
  0.2591576634280832  0.0675908881808966  0.9855725930847210
  0.2315165523427778  0.6279535882761947  0.8771403488335028
  0.8529236554395841  0.2346139228499850  0.8446238873609717
  0.7437672648268111  0.8507154453313818  0.8603766293177937
  0.4214650424540826  0.2489076036545189  0.6665891733472237
  0.5125721879030041  0.2346162598218948  0.3696650988192608
  0.6848949452450830  0.5714132292364862  0.6041125026939780
  0.5760723810620901  0.8816506434179310  0.5491607602862806
  0.9661716685342397  0.2115933762808398  0.5031604140140480
  0.6968967570272051  0.7964651612442440  0.1368561191135041
  0.1243878817370378  0.5840288817056172  0.2873704731287268
 
  0.00000000E+00  0.00000000E+00  0.00000000E+00
  0.00000000E+00  0.00000000E+00  0.00000000E+00
  0.00000000E+00  0.00000000E+00  0.00000000E+00
  0.00000000E+00  0.00000000E+00  0.00000000E+00
  0.00000000E+00  0.00000000E+00  0.00000000E+00
  0.00000000E+00  0.00000000E+00  0.00000000E+00
  0.00000000E+00  0.00000000E+00  0.00000000E+00
  0.00000000E+00  0.00000000E+00  0.00000000E+00
  0.00000000E+00  0.00000000E+00  0.00000000E+00
  0.00000000E+00  0.00000000E+00  0.00000000E+00
  0.00000000E+00  0.00000000E+00  0.00000000E+00
