Sr5 Nb1 H15
1.0
6.240110 0.319535 0.698179
3.278079 5.579139 0.535341
3.148969 -0.488528 8.368380
Sr Nb H
5 1 15
direct
0.225848 0.526091 0.279989 Sr
0.877349 0.181926 0.438052 Sr
0.427088 0.898086 0.573718 Sr
0.962403 0.577842 0.745696 Sr
0.519798 0.249932 0.913943 Sr
0.665982 0.718842 0.160370 Nb
0.099661 0.977315 0.925375 H
0.123363 0.085358 0.906834 H
0.584378 0.857553 0.973416 H
0.772925 0.800413 0.292438 H
0.285106 0.862624 0.212216 H
0.014506 0.681250 0.984658 H
0.675982 0.472109 0.052242 H
0.618143 0.520774 0.708856 H
0.958491 0.974760 0.692501 H
0.984214 0.413983 0.179075 H
0.435313 0.224086 0.678044 H
0.512583 0.586683 0.370882 H
0.507514 0.067194 0.185573 H
0.883566 0.803077 0.512069 H
0.125072 0.302469 0.514717 H
