H14
1.0
2.846058 -0.107208 -0.064888
1.274276 4.198418 0.126933
0.031925 0.630094 7.284002
H
14
direct
0.699894 0.292861 0.821873 H
0.923379 0.250049 0.884386 H
0.501893 0.921668 0.650589 H
0.763910 0.834808 0.655424 H
0.630721 0.809279 0.971005 H
0.453898 0.824887 0.045030 H
0.364250 0.342189 0.074723 H
0.160904 0.373908 0.137782 H
0.936553 0.890199 0.269293 H
0.115023 0.903718 0.342271 H
0.147456 0.420063 0.633652 H
0.787872 0.488869 0.375048 H
0.349000 0.427855 0.571843 H
0.657440 0.388358 0.329783 H
