Sr1 Nb1 H6                              
   1.00000000000000     
     3.1608073236475751   -0.4720237383523975    1.0126840206467418
     0.4879236688889201    3.6642168534240405    0.2494983740736698
     1.4901086570483140   -0.4995668998192927    6.1349880321423624
   H    Sr   H    Nb
     3     1     3     1
Direct
  0.3867345047240995  0.1838717847957210  0.0562480997354379
  0.2077555701797112  0.6821615461204498  0.2634975792264733
  0.3417108090050077  0.2122650371062573  0.6346646754202264
  0.0271274391446053  0.6921743673645857  0.9282713200832777
  0.8307924964932132  0.7179641117608043  0.6182695960477244
  0.6724838801511681  0.3544196856661326  0.2941707065124885
  0.5958904628399433  0.8758575263786675  0.3784710906381146
  0.0192768374622383  0.1432919408073898  0.4120789323362383
 
  0.00000000E+00  0.00000000E+00  0.00000000E+00
  0.00000000E+00  0.00000000E+00  0.00000000E+00
  0.00000000E+00  0.00000000E+00  0.00000000E+00
  0.00000000E+00  0.00000000E+00  0.00000000E+00
  0.00000000E+00  0.00000000E+00  0.00000000E+00
  0.00000000E+00  0.00000000E+00  0.00000000E+00
  0.00000000E+00  0.00000000E+00  0.00000000E+00
  0.00000000E+00  0.00000000E+00  0.00000000E+00
