Sr2 Nb1 H13                             
   1.00000000000000     
     5.3891801427884083    0.2807566068686096    0.3588938610221171
     0.4831865398102490    4.5772175270134143    0.0288152396542199
     0.9577439890675906    2.3060412792835874    6.3921482771072586
   H    Sr   H    Nb   Sr
     6     1     7     1     1
Direct
  0.2176965174859620  0.3251573590373737  0.6099736004393508
  0.3359142996312672  0.3811333893831074  0.4954317296262646
  0.2881781112603705 -0.0414905061776844  0.9628351159939497
  0.3462115954186399  0.9286239304387600  0.0624237467862934
  0.3329341198063835  0.4999959834393286  0.8096470368972190
  0.5198308635410259  0.8818676048580125  0.5828580462625890
  0.6987466388807263  0.1696792168596566  0.7357458286491048
  0.9280708217604026  0.6026021938669190  0.7315420522560521
  0.1303686294196252  0.9353787536688231  0.7601275404717172
  0.8356042659122230  0.0220676281209084  0.0563951864655459
 -0.0142626850288377  0.0586353666988844  0.4676600539654194
  0.5321095258053498  0.5901476293482917  0.4056337588629789
  0.1202229809691339  0.7009101873137806  0.3369224589545202
  0.3596427409580271  0.0749863432179767  0.3144834206528370
  0.2386480062939190  0.7506533750546919  0.5549066876770016
  0.0014595678857794  0.4451205448711756  0.1263817360391507
 
  0.00000000E+00  0.00000000E+00  0.00000000E+00
  0.00000000E+00  0.00000000E+00  0.00000000E+00
  0.00000000E+00  0.00000000E+00  0.00000000E+00
  0.00000000E+00  0.00000000E+00  0.00000000E+00
  0.00000000E+00  0.00000000E+00  0.00000000E+00
  0.00000000E+00  0.00000000E+00  0.00000000E+00
  0.00000000E+00  0.00000000E+00  0.00000000E+00
  0.00000000E+00  0.00000000E+00  0.00000000E+00
  0.00000000E+00  0.00000000E+00  0.00000000E+00
  0.00000000E+00  0.00000000E+00  0.00000000E+00
  0.00000000E+00  0.00000000E+00  0.00000000E+00
  0.00000000E+00  0.00000000E+00  0.00000000E+00
  0.00000000E+00  0.00000000E+00  0.00000000E+00
  0.00000000E+00  0.00000000E+00  0.00000000E+00
  0.00000000E+00  0.00000000E+00  0.00000000E+00
  0.00000000E+00  0.00000000E+00  0.00000000E+00
