Sr1 Nb2 H7                              
   1.00000000000000     
     3.2057860672102949    0.1193438683075433   -0.0043048995020412
     0.5319035338980340    6.7729011914995318    1.3822426647467703
     1.7502031145913961    4.0140478042385253    5.4885420680939943
   H    Nb   H    Sr   Nb   H 
     1     1     5     1     1     1
Direct
  0.5106740507960793  0.0853553410571246  0.7388969971969699
  0.3922954433410110  0.1739555112501376  0.9430485149177760
  0.2290160806159197  0.3311736042609805  0.3934326334563797
  0.2798984192604294  0.2681826884568344  0.3336058579095095
  0.5188513418025534  0.5123404592279447  0.8688191799881699
  0.0057974834893307  0.3303432859989340  0.6919781963977141
  0.2586992372533674  0.7695894348675484  0.1841343207859547
  0.9451483487240663  0.7117371309716597  0.9487201002747058
  0.8325594000147104  0.7144840182694560  0.4749034687756916
  0.3235191947025308  0.9521465256394021  0.3791647302971246
 
  0.00000000E+00  0.00000000E+00  0.00000000E+00
  0.00000000E+00  0.00000000E+00  0.00000000E+00
  0.00000000E+00  0.00000000E+00  0.00000000E+00
  0.00000000E+00  0.00000000E+00  0.00000000E+00
  0.00000000E+00  0.00000000E+00  0.00000000E+00
  0.00000000E+00  0.00000000E+00  0.00000000E+00
  0.00000000E+00  0.00000000E+00  0.00000000E+00
  0.00000000E+00  0.00000000E+00  0.00000000E+00
  0.00000000E+00  0.00000000E+00  0.00000000E+00
  0.00000000E+00  0.00000000E+00  0.00000000E+00
