Sr2 Nb4 H14                             
   1.00000000000000     
     3.4346507126050243   -0.3912665667696785   -0.6918921968497712
     0.5488545507280048    6.6683389075354471   -1.2209006587021327
    -0.1911255435088853   -0.2206458578184326    7.7304652157388940
   Nb   H    Sr   H    Nb   H    Nb   H    Nb   H    Sr   H 
     1     1     1     1     1     5     1     4     1     2     1     1
Direct
  0.9203864198869242  0.9823389088403311  0.5071533732087340
  0.0015986279281035  0.2593926906844836  0.6377003965098210
  0.6183175157463996  0.3272859528945898  0.8837531569264460
  0.0442664153198903  0.5464186932671790  0.7621744009427985
  0.9255328870021815  0.4761682601782234  0.5095259767757431
  0.9842767772315911  0.7557158790509746  0.6169613610047963
  0.1767305020823258  0.1056654896874807  0.9942149410873468
  0.7375672955429770  0.1290794855224268  0.1206005687895886
  0.8547662315712075  0.1980967958517851  0.3711247727620682
  0.2326058354458551  0.8838421629384173  0.1258061440047110
  0.3047550417493118  0.6700847540778688  0.2662358566105467
  0.3805493184992355  0.4520419811212343  0.4145825678659508
  0.1808838194833723  0.6092984532657092  0.0140193523529088
  0.8027017306660892  0.8118380004577292  0.2645484420166962
  0.8061763375833350  0.5271811015447865  0.2658491274837483
  0.2943823375041843  0.1633277505438883  0.2406963787233831
  0.2396246548119097  0.3897631202132524  0.1279033697614506
  0.3754405819272243  0.9600608018078124  0.4122549860426764
  0.5993028405061989  0.8189841687376432  0.8714188632856652
  0.0154038295117124  0.0345395493141893  0.7574329638449093
 
  0.00000000E+00  0.00000000E+00  0.00000000E+00
  0.00000000E+00  0.00000000E+00  0.00000000E+00
  0.00000000E+00  0.00000000E+00  0.00000000E+00
  0.00000000E+00  0.00000000E+00  0.00000000E+00
  0.00000000E+00  0.00000000E+00  0.00000000E+00
  0.00000000E+00  0.00000000E+00  0.00000000E+00
  0.00000000E+00  0.00000000E+00  0.00000000E+00
  0.00000000E+00  0.00000000E+00  0.00000000E+00
  0.00000000E+00  0.00000000E+00  0.00000000E+00
  0.00000000E+00  0.00000000E+00  0.00000000E+00
  0.00000000E+00  0.00000000E+00  0.00000000E+00
  0.00000000E+00  0.00000000E+00  0.00000000E+00
  0.00000000E+00  0.00000000E+00  0.00000000E+00
  0.00000000E+00  0.00000000E+00  0.00000000E+00
  0.00000000E+00  0.00000000E+00  0.00000000E+00
  0.00000000E+00  0.00000000E+00  0.00000000E+00
  0.00000000E+00  0.00000000E+00  0.00000000E+00
  0.00000000E+00  0.00000000E+00  0.00000000E+00
  0.00000000E+00  0.00000000E+00  0.00000000E+00
  0.00000000E+00  0.00000000E+00  0.00000000E+00
