Sr1 Nb2 H14                             
   1.00000000000000     
     3.6488684828442750   -0.3165745014656455   -0.2081733787808930
     0.4225997743455345    5.5306293863121470   -0.1206775270232289
     0.6291417979227393    0.2524665835306302    6.6462375570348460
   H    Nb   H    Nb   H    Sr
     2     1     4     1     8     1
Direct
  0.1580068230355321  0.7071072993814469  0.7358858400754436
  0.9473456146317154  0.0638861575441890  0.7420100740436304
  0.9328531390796805  0.8450262419656676  0.5353415850994052
  0.6953898742860667  0.7488544036457994  0.7539063368974024
  0.7788317792378155  0.5220731946029610  0.5350985163176384
  0.2679292286668264  0.6396797960873584  0.4033169734832874
  0.8155714584086001  0.7702189321877559  0.2615094315989246
  0.9360174745045057  0.4445703586866428  0.2645654495101399
  0.4202539802665189  0.3147712541585410  0.2552809733894725
  0.2124773149282193  0.5946828941856614  0.0818935380607681
  0.5336072174764365  0.9676892927754986  0.0449494975441962
 -0.0543171762101119  0.2346681900165445  0.0511693720795367
  0.7563168822481829  0.5802494134831367  0.0517543900612209
  0.3443084956124724  0.9308958879960687  0.0151166325872112
 -0.0743743537708749  0.1486654939546570  0.4113629774735513
  0.4233297263303247  0.9738221834654405  0.5341333737393162
  0.4442595212681194  0.3264910058626332  0.8160380380388765
 
  0.00000000E+00  0.00000000E+00  0.00000000E+00
  0.00000000E+00  0.00000000E+00  0.00000000E+00
  0.00000000E+00  0.00000000E+00  0.00000000E+00
  0.00000000E+00  0.00000000E+00  0.00000000E+00
  0.00000000E+00  0.00000000E+00  0.00000000E+00
  0.00000000E+00  0.00000000E+00  0.00000000E+00
  0.00000000E+00  0.00000000E+00  0.00000000E+00
  0.00000000E+00  0.00000000E+00  0.00000000E+00
  0.00000000E+00  0.00000000E+00  0.00000000E+00
  0.00000000E+00  0.00000000E+00  0.00000000E+00
  0.00000000E+00  0.00000000E+00  0.00000000E+00
  0.00000000E+00  0.00000000E+00  0.00000000E+00
  0.00000000E+00  0.00000000E+00  0.00000000E+00
  0.00000000E+00  0.00000000E+00  0.00000000E+00
  0.00000000E+00  0.00000000E+00  0.00000000E+00
  0.00000000E+00  0.00000000E+00  0.00000000E+00
  0.00000000E+00  0.00000000E+00  0.00000000E+00
