pymatgen with grid density = 1887 / number of atoms
0
Gamma
5 4 3
