Sr1 Nb1 H19                             
   1.00000000000000     
     3.6991058729324751   -0.0550041239051256    0.0235409647728334
    -0.0474882307099303    5.4316387349707229    0.3982905958620012
     1.7933885935891929    3.1043971437417346    9.2737847607360919
   Sr   Nb   H 
     1     1    19
Direct
  0.4091025856251913  0.1294119678045210  0.6252837254054225
  0.0736526622770124  0.7594583218705886  0.4012609255680479
  0.1844494391808491  0.4376322384541983  0.8097658049894276
  0.3776990858988785  0.4344106066321845  0.8228373814380214
  0.7072069940275364  0.5120049707443999  0.0664005160801539
  0.6441010662549136  0.4803614876797291  0.1474429637214000
  0.0355392158478544  0.7129665741611944  0.2014387686431477
  0.2500712743393964  0.7433398489988186  0.1923188873259991
  0.1874134165728181  0.1590756021147133  0.2451828128254938
  0.9862854157093801  0.1358622492939080  0.2336093371608964
  0.7139032296457791  0.0962941212753394  0.9750312339613484
  0.6725430015843655  0.1152769122631052  0.0475310891385030
  0.1390566738502554  0.8224934496507780  0.9170779896068690
  0.3414636678540013  0.8105601772885342  0.9223195320283796
  0.8303412527254334  0.0358762365257061  0.7768345886767757
  0.4618918097319152 -0.0042094304488960  0.3752269045454005
  0.9539478084568597  0.9092289057642148  0.5378050142699519
  0.5286885433401873  0.6627288165618255  0.3362271366776027
  0.3533249413131518  0.6533784574925456  0.5353050949433013
  0.8657182252732105  0.5356731796516847  0.5844248432115819
  0.0639416904910010  0.4096543062208995  0.4334004497822931
 
  0.00000000E+00  0.00000000E+00  0.00000000E+00
  0.00000000E+00  0.00000000E+00  0.00000000E+00
  0.00000000E+00  0.00000000E+00  0.00000000E+00
  0.00000000E+00  0.00000000E+00  0.00000000E+00
  0.00000000E+00  0.00000000E+00  0.00000000E+00
  0.00000000E+00  0.00000000E+00  0.00000000E+00
  0.00000000E+00  0.00000000E+00  0.00000000E+00
  0.00000000E+00  0.00000000E+00  0.00000000E+00
  0.00000000E+00  0.00000000E+00  0.00000000E+00
  0.00000000E+00  0.00000000E+00  0.00000000E+00
  0.00000000E+00  0.00000000E+00  0.00000000E+00
  0.00000000E+00  0.00000000E+00  0.00000000E+00
  0.00000000E+00  0.00000000E+00  0.00000000E+00
  0.00000000E+00  0.00000000E+00  0.00000000E+00
  0.00000000E+00  0.00000000E+00  0.00000000E+00
  0.00000000E+00  0.00000000E+00  0.00000000E+00
  0.00000000E+00  0.00000000E+00  0.00000000E+00
  0.00000000E+00  0.00000000E+00  0.00000000E+00
  0.00000000E+00  0.00000000E+00  0.00000000E+00
  0.00000000E+00  0.00000000E+00  0.00000000E+00
  0.00000000E+00  0.00000000E+00  0.00000000E+00
