pymatgen with grid density = 1992 / number of atoms
0
Gamma
8 4 3
