H13                                     
   1.00000000000000     
     2.8179056465403529   -0.0659198891496960   -0.0274030537941464
    -1.2939704588641339    4.0275237734999960    0.2245370567262602
    -0.1110241479606678   -0.0070932441624631    6.7529430062193274
   H 
    13
Direct
  0.8875631756041609  0.0708472453133812  0.7174404139338016
  0.0684259454893436  0.0644246810586439  0.6404445317011539
  0.7779358148821861  0.6874179008377471  0.1957961081489865
  0.9582564784252188  0.7239264271993158  0.1115574762515388
  0.3693324466908008  0.6145610276784709  0.8865458518185437
  0.1784317959746116  0.6404683920039954  0.8146952925353064
  0.6151640346602656  0.1709753559102624  0.0303954763341566
  0.4694160763631919  0.1837893623809609  0.9383636395745413
  0.0279866959391123  0.5824232791360672  0.5160380873031855
  0.6830788688609408  0.5554565227771534  0.5233018246455977
  0.3552312949561882  0.5690340154122759  0.5077062816956123
  0.5702017463869997  0.0787652381865507  0.3509140026661925
  0.8321766257669688  0.1739075521051610  0.3187360133913618
 
  0.00000000E+00  0.00000000E+00  0.00000000E+00
  0.00000000E+00  0.00000000E+00  0.00000000E+00
  0.00000000E+00  0.00000000E+00  0.00000000E+00
  0.00000000E+00  0.00000000E+00  0.00000000E+00
  0.00000000E+00  0.00000000E+00  0.00000000E+00
  0.00000000E+00  0.00000000E+00  0.00000000E+00
  0.00000000E+00  0.00000000E+00  0.00000000E+00
  0.00000000E+00  0.00000000E+00  0.00000000E+00
  0.00000000E+00  0.00000000E+00  0.00000000E+00
  0.00000000E+00  0.00000000E+00  0.00000000E+00
  0.00000000E+00  0.00000000E+00  0.00000000E+00
  0.00000000E+00  0.00000000E+00  0.00000000E+00
  0.00000000E+00  0.00000000E+00  0.00000000E+00
