Sr2 Nb3 H19                             
   1.00000000000000     
     6.0233511679832841   -0.6215474069525561    0.5284378951051442
     0.8991572139662204    6.7748929728868488   -0.4761139314336673
     2.0952092332197547    0.9898196319509354    5.4033993329297036
   H    Sr   Nb   H    Nb   H    Nb   H    Sr   H 
     5     1     1     3     1     6     1     4     1     1
Direct
  0.6490886434134480  0.1591371105030334  0.3793773353804626
  0.1256773466211462  0.8490904566196799  0.6079549140993468
  0.1157093414771121  0.8247736050332102  0.2191811100003205
  0.4222761008319336  0.4306591417810557  0.3992810420199491
  0.1638677646188288  0.5423316252650751  0.1826491259292337
  0.0686763386186906  0.1404585151599698  0.3384647332267906
  0.2453820990533299  0.7449728615842521  0.8858103293718367
  0.4760279918943566  0.4942583514500219  0.8055799330437281
  0.4448144748057474  0.9761199951176625  0.7866099462628123
  0.4888202226272987  0.7174379263075688  0.0118590240959520
  0.2997009817159571  0.6868697212771783  0.3725620879293383
  0.6156054797129519  0.7152000290938735  0.2394649371987571
  0.4365586043443271  0.9256160387934732  0.2598007078047975
  0.4834039937140573  0.7492368740026433  0.5421671378690222
  0.9266413410355666  0.7219406742608938  0.0332113593417948
  0.0547483409030184  0.9531415181627222  0.9371509586607031
  0.7234632421742715  0.1481280351736972  0.7268804985737423
  0.4695830969838922  0.2614913465303908  0.6784060110671630
  0.1468001010238631  0.2808717086283406  0.9122789056263326
  0.7539449291190647  0.4135897452703984  0.4901988364082012
  0.1480630585234508  0.5664334212746085  0.7171730774648550
  0.2628284830102765  0.1680914165354459  0.5794883755673764
  0.7557440519931251  0.4155162298044212 -0.0039287823207606
  0.4458389717842763  0.2091886523703837 -0.0019186046217857
 
  0.00000000E+00  0.00000000E+00  0.00000000E+00
  0.00000000E+00  0.00000000E+00  0.00000000E+00
  0.00000000E+00  0.00000000E+00  0.00000000E+00
  0.00000000E+00  0.00000000E+00  0.00000000E+00
  0.00000000E+00  0.00000000E+00  0.00000000E+00
  0.00000000E+00  0.00000000E+00  0.00000000E+00
  0.00000000E+00  0.00000000E+00  0.00000000E+00
  0.00000000E+00  0.00000000E+00  0.00000000E+00
  0.00000000E+00  0.00000000E+00  0.00000000E+00
  0.00000000E+00  0.00000000E+00  0.00000000E+00
  0.00000000E+00  0.00000000E+00  0.00000000E+00
  0.00000000E+00  0.00000000E+00  0.00000000E+00
  0.00000000E+00  0.00000000E+00  0.00000000E+00
  0.00000000E+00  0.00000000E+00  0.00000000E+00
  0.00000000E+00  0.00000000E+00  0.00000000E+00
  0.00000000E+00  0.00000000E+00  0.00000000E+00
  0.00000000E+00  0.00000000E+00  0.00000000E+00
  0.00000000E+00  0.00000000E+00  0.00000000E+00
  0.00000000E+00  0.00000000E+00  0.00000000E+00
  0.00000000E+00  0.00000000E+00  0.00000000E+00
  0.00000000E+00  0.00000000E+00  0.00000000E+00
  0.00000000E+00  0.00000000E+00  0.00000000E+00
  0.00000000E+00  0.00000000E+00  0.00000000E+00
  0.00000000E+00  0.00000000E+00  0.00000000E+00
