pymatgen with grid density = 1509 / number of atoms
0
Monkhorst
4 4 4
