Sr2 Nb2 H11                             
   1.00000000000000     
     4.4875154861242574   -0.1362416883738734   -0.3150676163451641
     0.1382159709894544    6.8707209911072917    0.0877462823968929
     0.4275923047675784    1.8356617553655779    5.0405276004494572
   H    Sr   H    Nb   H    Nb   H    Sr   H 
     3     1     2     1     2     1     2     1     2
Direct
  0.2889660211859215  0.2079545928013271  0.0251158031924357
  0.8210334422711454  0.1463246963216945  0.7755337282442516
  0.7923924544933808  0.6151138639583381  0.6845920526633086
  0.2948060236124561  0.5895878864450360  0.9543955958734897
  0.5399272532197694  0.6472529035557332  0.3348666653335822
  0.2110900081803280  0.4503662261633265  0.6014312289617333
  0.8024166290350907  0.4269800937838439  0.4988648466925436
  0.0640235667196979  0.2620846705302295  0.3810562436479401
  0.7903987443972512  0.4712415903695121  0.1463386718603187
  0.2782373720776959  0.1633811448562317  0.7050849041082253
  0.5164112810586347  0.2676216902126297  0.3949935718665257
  0.3049382203011291  0.9231646967102227  0.0081339761275414
  0.7692984281373452  0.9798969244171004  0.2725024065875373
  0.2913518003161644  0.9379314568522616  0.5739645006318680
  0.0072877549939899  0.6686275630225155  0.3054088042087226
 
  0.00000000E+00  0.00000000E+00  0.00000000E+00
  0.00000000E+00  0.00000000E+00  0.00000000E+00
  0.00000000E+00  0.00000000E+00  0.00000000E+00
  0.00000000E+00  0.00000000E+00  0.00000000E+00
  0.00000000E+00  0.00000000E+00  0.00000000E+00
  0.00000000E+00  0.00000000E+00  0.00000000E+00
  0.00000000E+00  0.00000000E+00  0.00000000E+00
  0.00000000E+00  0.00000000E+00  0.00000000E+00
  0.00000000E+00  0.00000000E+00  0.00000000E+00
  0.00000000E+00  0.00000000E+00  0.00000000E+00
  0.00000000E+00  0.00000000E+00  0.00000000E+00
  0.00000000E+00  0.00000000E+00  0.00000000E+00
  0.00000000E+00  0.00000000E+00  0.00000000E+00
  0.00000000E+00  0.00000000E+00  0.00000000E+00
  0.00000000E+00  0.00000000E+00  0.00000000E+00
