Sr1 Nb1 H6                              
   1.00000000000000     
     3.0869370902790374   -1.2255637535832105   -0.1917402072345948
    -0.9573524326565146    6.4107459320445601    0.1889375452943517
     0.3084377876149185    0.0698536098123313    3.6221776930172456
   H    Sr   Nb   H 
     5     1     1     1
Direct
  0.0446542025207819  0.3606123797714177  0.5392484922057106
  0.5380372850102987  0.8714562725599541  0.0009362800114801
  0.9557350912844583  0.7933291050027892  0.3504895659352432
  0.1853689687171695  0.5254279704029277  0.0310681032110250
  0.7689164391366843  0.6075702033700994  0.8099604877163172
  0.3556405968794273  0.1917082173418292  0.0356491711836125
  0.3705626604688981  0.6983601355761465  0.5798732716847660
  0.6845847559822901  0.0287187159748555  0.4921896280518336
 
  0.00000000E+00  0.00000000E+00  0.00000000E+00
  0.00000000E+00  0.00000000E+00  0.00000000E+00
  0.00000000E+00  0.00000000E+00  0.00000000E+00
  0.00000000E+00  0.00000000E+00  0.00000000E+00
  0.00000000E+00  0.00000000E+00  0.00000000E+00
  0.00000000E+00  0.00000000E+00  0.00000000E+00
  0.00000000E+00  0.00000000E+00  0.00000000E+00
  0.00000000E+00  0.00000000E+00  0.00000000E+00
