Sr1 Nb1 H22                             
   1.00000000000000     
     3.5963886073375808   -0.5351079200472468   -0.1010495044270076
     0.8734293731096737    5.8527842784610185   -0.5634018531923664
     0.1990705810867456   -0.7038778145122953    9.0834965457268044
   Sr   Nb   H 
     1     1    22
Direct
  0.2832011878558288  0.2536330305243311  0.6488966271190569
  0.7510917781252069  0.7715645650477659  0.7404134809387707
  0.2951414016591168  0.5771926714390688  0.0290718287749668
  0.3016072511159679  0.5707309364490813  0.1099665171648336
  0.8216684491037338  0.3100365587728993  0.1191127194990420
  0.7980150388622024  0.2755492037797697  0.0371150425994780
  0.3010471632602072  0.4033893379338484  0.3166967673237330
  0.2445132683475935  0.4942223847249600  0.3800436697103943
  0.7757359750877626  0.7062103397435310  0.3051806129285911
  0.8013486601039639  0.7016896333809693  0.2237018166469174
  0.3143588911411945  0.0720230150476933  0.1190331398167876
  0.3067425912378652  0.9767710001944839  0.1623275598549311
  0.7819615094082029  0.2384594111700560  0.3792768303502786
  0.7792516099481623  0.1133602486171670  0.3823501328474544
  0.2970635677916687  0.8749078842766258  0.4352580541148657
  0.2740599402199324  0.9347871154143036  0.3698045519673099
  0.3046525313632931  0.8497426758435013  0.6633482639814330
  0.7878148621591246  0.9216648656604868  0.5782513365407815
  0.7988927202704372  0.4815147713907850  0.7958959437321510
  0.8735410363134299  0.8777216480184948  0.9663850468899989
  0.7264037725868289  0.7774645255450485  0.9703887925351390
  0.7706055072039478  0.0903140812781483  0.8047716158779350
  0.3195262540229490  0.6657335043882439  0.8162967551741819
  0.7754510328113750  0.5512895913587290  0.5659948936109601
 
  0.00000000E+00  0.00000000E+00  0.00000000E+00
  0.00000000E+00  0.00000000E+00  0.00000000E+00
  0.00000000E+00  0.00000000E+00  0.00000000E+00
  0.00000000E+00  0.00000000E+00  0.00000000E+00
  0.00000000E+00  0.00000000E+00  0.00000000E+00
  0.00000000E+00  0.00000000E+00  0.00000000E+00
  0.00000000E+00  0.00000000E+00  0.00000000E+00
  0.00000000E+00  0.00000000E+00  0.00000000E+00
  0.00000000E+00  0.00000000E+00  0.00000000E+00
  0.00000000E+00  0.00000000E+00  0.00000000E+00
  0.00000000E+00  0.00000000E+00  0.00000000E+00
  0.00000000E+00  0.00000000E+00  0.00000000E+00
  0.00000000E+00  0.00000000E+00  0.00000000E+00
  0.00000000E+00  0.00000000E+00  0.00000000E+00
  0.00000000E+00  0.00000000E+00  0.00000000E+00
  0.00000000E+00  0.00000000E+00  0.00000000E+00
  0.00000000E+00  0.00000000E+00  0.00000000E+00
  0.00000000E+00  0.00000000E+00  0.00000000E+00
  0.00000000E+00  0.00000000E+00  0.00000000E+00
  0.00000000E+00  0.00000000E+00  0.00000000E+00
  0.00000000E+00  0.00000000E+00  0.00000000E+00
  0.00000000E+00  0.00000000E+00  0.00000000E+00
  0.00000000E+00  0.00000000E+00  0.00000000E+00
  0.00000000E+00  0.00000000E+00  0.00000000E+00
