Sr2 Nb2 H13
1.0
3.736494 0.057913 -0.019824
0.215627 6.912724 -0.531091
0.512458 0.719357 5.445662
Sr Nb H
2 2 13
direct
0.237788 0.505350 0.271824 Sr
0.344840 0.000049 0.296862 Sr
0.746755 0.234352 0.763883 Nb
0.701549 0.722454 0.779013 Nb
0.403440 0.531999 0.843571 H
0.402047 0.255895 0.016313 H
0.509196 0.002699 0.820775 H
0.263030 0.780418 0.942749 H
0.888415 0.116007 0.044612 H
0.870124 0.468517 0.926423 H
0.722204 0.723518 0.118388 H
0.757955 0.504074 0.585026 H
0.842197 0.793089 0.451746 H
0.992072 0.014809 0.693483 H
0.792931 0.228487 0.417847 H
0.316466 0.729216 0.596887 H
0.270877 0.267496 0.639781 H
