Sr1 Nb1 H14
1.0
4.244442 -0.215030 -0.266745
-0.316904 5.104213 -0.256527
-1.260705 -0.686547 5.608111
Sr Nb H
1 1 14
direct
0.308544 0.845216 0.988918 Sr
0.551103 0.232368 0.613073 Nb
0.887310 0.789281 0.287520 H
0.835926 0.666783 0.184224 H
0.047071 0.401404 0.036242 H
0.190948 0.422268 0.152326 H
0.234466 0.134915 0.327226 H
0.853027 0.241044 0.392497 H
0.695643 0.318207 0.332253 H
0.203717 0.021537 0.647455 H
0.755490 0.027090 0.838166 H
0.249996 0.495540 0.562376 H
0.413718 0.581419 0.539196 H
0.561859 0.899690 0.457281 H
0.496945 0.360082 0.912030 H
0.843140 0.551532 0.742740 H
