Sr1 Nb1 H22
1.0
4.968019 0.100637 -0.030524
-0.284741 5.003114 0.131158
-0.134619 0.150978 6.732030
Sr Nb H
1 1 22
direct
0.175664 0.209096 0.713711 Sr
0.717524 0.674654 0.842879 Nb
0.586695 0.847189 0.282799 H
0.584722 0.811173 0.393086 H
0.442054 0.520251 0.034273 H
0.405218 0.676278 0.021598 H
0.031649 0.897976 0.431769 H
0.151409 0.952973 0.373199 H
0.839257 0.554104 0.617515 H
0.625411 0.332726 0.809957 H
0.918780 0.558922 0.092990 H
0.904071 0.723705 0.109190 H
0.075164 0.724539 0.814777 H
0.503902 0.948076 0.875636 H
0.445433 0.652095 0.652758 H
0.768144 0.936986 0.654521 H
0.369830 0.092261 0.082407 H
0.273666 0.184872 0.127480 H
0.246795 0.499988 0.389398 H
0.126917 0.421655 0.347755 H
0.650060 0.259236 0.332904 H
0.675360 0.357973 0.413425 H
0.875315 0.222024 0.010024 H
0.874262 0.051521 0.013404 H
