Sr2 Nb1 H10                             
   1.00000000000000     
     3.8583574813590773    0.0983534224107977   -0.0727782201452787
     0.2371697163641081    6.1372405060025139   -0.6710212089713374
     0.1128778791324165    0.5889733445731182    5.9314159306018022
   H    Nb   H    Sr   H 
     2     1     7     2     1
Direct
  0.9453017024578279  0.8609023416413455  0.5093657371701770
  0.4068639320200879  0.8751000528086770  0.5156651292780579
  0.1381478685332052  0.0773227404569058  0.6645700940368632
  0.1073696690662828  0.1879808931003550  0.9565557579084061
  0.1476205722364748  0.8430299781553016  0.8650568726796440
  0.1133079176995059  0.1687350817123512  0.3689978710662465
  0.1432258984361435  0.3774372083949483  0.6475019459721075
  0.6273300913875240  0.1430461813620387  0.7254511822685455
  0.4391505548247353  0.4884412229442325  0.1620102594682547
  0.2781538030095852  0.4200052686091192  0.1506885575849422
  0.6349041677997658  0.0303458113151883  0.1693520446015458
  0.6358395052030487  0.5824867584421004  0.7417943926510689
  0.7563003173258229  0.6640254610574243  0.1126021553141437
 
  0.00000000E+00  0.00000000E+00  0.00000000E+00
  0.00000000E+00  0.00000000E+00  0.00000000E+00
  0.00000000E+00  0.00000000E+00  0.00000000E+00
  0.00000000E+00  0.00000000E+00  0.00000000E+00
  0.00000000E+00  0.00000000E+00  0.00000000E+00
  0.00000000E+00  0.00000000E+00  0.00000000E+00
  0.00000000E+00  0.00000000E+00  0.00000000E+00
  0.00000000E+00  0.00000000E+00  0.00000000E+00
  0.00000000E+00  0.00000000E+00  0.00000000E+00
  0.00000000E+00  0.00000000E+00  0.00000000E+00
  0.00000000E+00  0.00000000E+00  0.00000000E+00
  0.00000000E+00  0.00000000E+00  0.00000000E+00
  0.00000000E+00  0.00000000E+00  0.00000000E+00
