Sr2 Nb2 H21
1.0
5.539902 -0.100501 -0.069766
1.647506 5.715770 0.128769
-0.083003 1.198241 6.942437
Sr Nb H
2 2 21
direct
0.147363 0.310376 0.944879 Sr
0.069598 0.471270 0.426729 Sr
0.539149 0.632313 0.103926 Nb
0.537582 0.608137 0.691326 Nb
0.434932 0.950252 0.077316 H
0.833730 0.394848 0.173933 H
0.211126 0.625263 0.137363 H
0.174221 0.047372 0.670303 H
0.444331 0.913725 0.567414 H
0.812706 0.360924 0.689983 H
0.435284 0.338354 0.675821 H
0.205650 0.698385 0.617996 H
0.329815 0.749575 0.873284 H
0.570132 0.399682 0.943926 H
0.437838 0.246363 0.256188 H
0.764009 0.762722 0.197044 H
0.718394 0.710954 0.882012 H
0.778372 0.730116 0.588224 H
0.037762 0.118694 0.679409 H
0.525027 0.568080 0.404047 H
0.404827 0.120465 0.280267 H
0.977126 0.956425 0.994398 H
0.016033 0.979413 0.397482 H
0.880013 0.033631 0.362378 H
0.859762 0.050011 0.947053 H
