pymatgen with grid density = 2098 / number of atoms
0
Monkhorst
4 4 4
