pymatgen with grid density = 1795 / number of atoms
0
Gamma
4 4 3
