Sr2 Nb2 H18
1.0
5.668577 0.000000 -0.000000
2.309571 5.393843 -0.000000
1.684996 2.437730 6.737033
H Nb H Nb H Sr H Sr
6 1 8 1 3 1 1 1
direct
0.468405 0.192287 0.460461 H
0.760085 0.956197 0.540618 H
0.507752 0.908338 0.401065 H
0.047404 0.229143 0.087287 H
0.047133 0.255094 0.008104 H
0.846647 0.239031 0.125576 H
0.858129 0.470491 0.856102 Nb
0.003398 0.064042 0.311105 H
0.552901 0.472608 0.046546 H
0.634357 0.661161 0.668242 H
0.805946 0.522723 0.186080 H
0.047404 0.229143 0.587287 H
0.047133 0.255094 0.508104 H
0.808224 0.295720 0.702138 H
0.003398 0.064042 0.811105 H
0.453842 0.962025 0.730832 Nb
0.235973 0.868121 0.704828 H
0.674585 0.769883 0.922516 H
0.266694 0.890970 0.101687 H
0.869813 0.910366 0.068932 Sr
0.507457 0.134780 0.884015 H
0.442423 0.522005 0.517160 Sr
