Sr2 Nb1 H9
1.0
4.226808 -0.000000 0.000000
-0.604697 5.648930 -0.000000
-0.245815 -1.114374 6.062315
Nb H Sr H Sr
1 5 1 4 1
direct
0.303566 0.426730 0.779602 Nb
0.128232 0.672789 0.908695 H
0.602345 0.664741 0.902493 H
0.129845 0.178404 0.909799 H
0.716457 0.786756 0.197938 H
0.196944 0.173367 0.541416 H
0.964340 0.192824 0.193018 Sr
0.156471 0.592821 0.205374 H
0.309877 0.927843 0.223894 H
0.604640 0.190168 0.900934 H
0.193943 0.678652 0.541491 H
0.742166 0.926292 0.642205 Sr
