Sr2 Nb2 H21                             
   1.00000000000000     
     5.5399200316901522   -0.0995510312427746   -0.0695428832611444
     1.6485012721165326    5.7164767285399973    0.1281196253276215
    -0.0825338010709103    1.1974547577742336    6.9422621450855697
   Nb   H    Nb   H    Sr   H    Sr
     1     5     1    11     1     5     1
Direct
  0.5390645886135638  0.6323792076257974  0.1038675557238365
  0.4348906792849135  0.9502360090224927  0.0772681591825898
  0.8337698153021680  0.3948316389927328  0.1739025999851050
  0.2112811261983939  0.6251392847179514  0.1374232351374153
  0.1743153436535494  0.0471685410264538  0.6705140199574120
  0.4443026920012887  0.9136581938678613  0.5674127790947824
  0.5376790103656477  0.6082575458061842  0.6912168700949493
  0.8127972229436810  0.3608899976567643  0.6899681921413727
  0.4353991878639960  0.3385031096209788  0.6757744904304933
  0.2056111320361021  0.6985037960584428  0.6178641475994905
  0.3297355308234852  0.7495036956075417  0.8732847371435928
  0.5702146979825323  0.3997798234292336  0.9438276997316496
  0.4378875942408177  0.2464709569700441  0.2561165984614523
  0.7641228995631155  0.7626883171629522  0.1970341995278349
  0.7183524052111644  0.7109764925776164  0.8819788929407981
  0.7782035767461828  0.7299786971177525  0.5882611986629573
  0.0375437479756753  0.1186923110993098  0.6795829961203445
  0.5250926038066034  0.5680205162177545  0.4040114686044730
  0.1473890586300181  0.3104107118919676  0.9448449143311591
  0.4047753589632479  0.1204374688036037  0.2802103068634618
  0.9772516353138455  0.9565594038920597  0.9943242617806934
  0.0162660121016035  0.9793923114232442  0.3976645184776287
  0.8791906649390340  0.0338886586397332  0.3625360203067243
  0.8599684306143960  0.0498773741762348  0.9470616191139822
  0.0696789848249757  0.4711069365952888  0.4267505185858129
 
  0.00000000E+00  0.00000000E+00  0.00000000E+00
  0.00000000E+00  0.00000000E+00  0.00000000E+00
  0.00000000E+00  0.00000000E+00  0.00000000E+00
  0.00000000E+00  0.00000000E+00  0.00000000E+00
  0.00000000E+00  0.00000000E+00  0.00000000E+00
  0.00000000E+00  0.00000000E+00  0.00000000E+00
  0.00000000E+00  0.00000000E+00  0.00000000E+00
  0.00000000E+00  0.00000000E+00  0.00000000E+00
  0.00000000E+00  0.00000000E+00  0.00000000E+00
  0.00000000E+00  0.00000000E+00  0.00000000E+00
  0.00000000E+00  0.00000000E+00  0.00000000E+00
  0.00000000E+00  0.00000000E+00  0.00000000E+00
  0.00000000E+00  0.00000000E+00  0.00000000E+00
  0.00000000E+00  0.00000000E+00  0.00000000E+00
  0.00000000E+00  0.00000000E+00  0.00000000E+00
  0.00000000E+00  0.00000000E+00  0.00000000E+00
  0.00000000E+00  0.00000000E+00  0.00000000E+00
  0.00000000E+00  0.00000000E+00  0.00000000E+00
  0.00000000E+00  0.00000000E+00  0.00000000E+00
  0.00000000E+00  0.00000000E+00  0.00000000E+00
  0.00000000E+00  0.00000000E+00  0.00000000E+00
  0.00000000E+00  0.00000000E+00  0.00000000E+00
  0.00000000E+00  0.00000000E+00  0.00000000E+00
  0.00000000E+00  0.00000000E+00  0.00000000E+00
  0.00000000E+00  0.00000000E+00  0.00000000E+00
