Sr2 Nb1 H11                             
   1.00000000000000     
     3.9514915886271478   -0.1355689306584956    0.0419096114311536
     0.5704285557526024    5.7627138972418797   -0.6234216882071167
     0.5749210163089953    0.2549046435411782    6.2817250278082444
   H    Nb   H    Sr   H    Sr   H 
     2     1     4     1     3     1     2
Direct
  0.3845687776732252  0.1326908952106397  0.7465774619223331
  0.2281027638045139  0.1894241911740671  0.0646426406880252
  0.1692790753006628  0.9275883786228316  0.8996083827257124
  0.2799270406458991  0.2738093454372216  0.3908909693444789
  0.4214008761276042  0.3506413548160379  0.4219435086885388
  0.7689545882391021  0.5332371415634640  0.3690703586234567
  0.7291156141473399  0.8185937549672805  0.8370803356726837
  0.6786173822027864  0.4400181162510324  0.0173216499050800
  0.2026156087732500  0.6075721767460132  0.8794767288386103
  0.9262433024517827  0.1403547687706884  0.7698953762024058
  0.2171440330498519  0.8184678194953425  0.6175145713444739
  0.7373771107416903  0.9331717096557328  0.4408394628651482
  0.2549520935488461  0.8277636887626854  0.1747901751867567
  0.8047207332934515  0.0363966585269779  0.0809113779923039
 
  0.00000000E+00  0.00000000E+00  0.00000000E+00
  0.00000000E+00  0.00000000E+00  0.00000000E+00
  0.00000000E+00  0.00000000E+00  0.00000000E+00
  0.00000000E+00  0.00000000E+00  0.00000000E+00
  0.00000000E+00  0.00000000E+00  0.00000000E+00
  0.00000000E+00  0.00000000E+00  0.00000000E+00
  0.00000000E+00  0.00000000E+00  0.00000000E+00
  0.00000000E+00  0.00000000E+00  0.00000000E+00
  0.00000000E+00  0.00000000E+00  0.00000000E+00
  0.00000000E+00  0.00000000E+00  0.00000000E+00
  0.00000000E+00  0.00000000E+00  0.00000000E+00
  0.00000000E+00  0.00000000E+00  0.00000000E+00
  0.00000000E+00  0.00000000E+00  0.00000000E+00
  0.00000000E+00  0.00000000E+00  0.00000000E+00
