Sr1 Nb1 H6
1.0
3.307320 -0.309014 -0.215631
0.364818 3.927611 -0.027410
0.376438 0.253714 5.412238
Sr Nb H
1 1 6
direct
0.152475 0.186564 0.168460 Sr
0.652510 0.721516 0.660165 Nb
0.152446 0.464075 0.639956 H
0.652489 0.073765 0.859947 H
0.152443 0.950475 0.689888 H
0.652496 0.153218 0.507444 H
0.652431 0.689169 0.317739 H
0.652493 0.572129 -0.011760 H
