H22                                     
   1.00000000000000     
     5.3131135306204067    0.2705718873765739   -0.3742866860343842
     0.3818706040220538    5.6675897603281271   -0.0614514955184325
     0.8982035692729178    1.9717147170880551    7.0445226875098541
   H 
    22
Direct
  0.3439229160598015  0.1590775174959753  0.6561269646037162
  0.3427251700166029  0.2254364439278437  0.5537775224927821
  0.3188837458694188  0.8541250359259661  0.9507313514480277
  0.8464251033329110  0.1785506741314217  0.0181084371468258
  0.8158125908954516  0.2713396331843628  0.9271589536676265
  0.2625420201725271  0.3300851609007874  0.0138141572637909
  0.3469882795077980  0.3859177607583786  0.9323394056404328
  0.3065034888367466  0.7143365299290970  0.5451261868707428
  0.3030268217089138  0.6702851633822294  0.6503071838350403
  0.8726768795719734  0.9105915757229670  0.7902564709060621
  0.4585916046236972  0.8525995555046170  0.9304559943529185
  0.8600407874581599  0.8191335627524453  0.7352686075876638
  0.8826506084999187  0.4407955811486287  0.5963519235972662
  0.7443015577710357  0.4749397009173582  0.5798133657200119
  0.1154713162177738  0.6602499645120324  0.2009701625926785
  0.0150724481779358  0.6362634217907557  0.2779736646210260
  0.6471618270721343  0.4633028738266640  0.2110082472418814
  0.5343490079360458  0.4520730110725236  0.2778030900742872
  0.5790595834108921  0.9503881155017728  0.3248255973145557
  0.5398751983762939  0.9400787662903665  0.2317557112204633
  0.9553029766152979  0.1259046181408034  0.3663986076214495
  0.0878480678686617  0.0901883331830109  0.3355323941807383
 
  0.00000000E+00  0.00000000E+00  0.00000000E+00
  0.00000000E+00  0.00000000E+00  0.00000000E+00
  0.00000000E+00  0.00000000E+00  0.00000000E+00
  0.00000000E+00  0.00000000E+00  0.00000000E+00
  0.00000000E+00  0.00000000E+00  0.00000000E+00
  0.00000000E+00  0.00000000E+00  0.00000000E+00
  0.00000000E+00  0.00000000E+00  0.00000000E+00
  0.00000000E+00  0.00000000E+00  0.00000000E+00
  0.00000000E+00  0.00000000E+00  0.00000000E+00
  0.00000000E+00  0.00000000E+00  0.00000000E+00
  0.00000000E+00  0.00000000E+00  0.00000000E+00
  0.00000000E+00  0.00000000E+00  0.00000000E+00
  0.00000000E+00  0.00000000E+00  0.00000000E+00
  0.00000000E+00  0.00000000E+00  0.00000000E+00
  0.00000000E+00  0.00000000E+00  0.00000000E+00
  0.00000000E+00  0.00000000E+00  0.00000000E+00
  0.00000000E+00  0.00000000E+00  0.00000000E+00
  0.00000000E+00  0.00000000E+00  0.00000000E+00
  0.00000000E+00  0.00000000E+00  0.00000000E+00
  0.00000000E+00  0.00000000E+00  0.00000000E+00
  0.00000000E+00  0.00000000E+00  0.00000000E+00
  0.00000000E+00  0.00000000E+00  0.00000000E+00
