Sr1 Nb2 H8                              
   1.00000000000000     
     3.3340784350075685    0.3502417423828583   -0.0861115889296249
    -0.5063963696315509    4.5335023860998609   -1.0093666051648877
    -1.3882532416332349   -1.0648994061267998    7.1130628380027101
   Sr   Nb   H 
     1     2     8
Direct
  0.0860135542173553  0.5252450440374692  0.6708908931457185
  0.3900389988164844  0.8212005185016871  0.2794142396975497
  0.7900500810777804  0.2371510658626580  0.0794346909619715
  0.5036266748415413  0.7130785970573184  0.5058302524882857
  0.5027995732787303  0.1591893738089117  0.5047849926506854
  0.9586811966673719  0.9435063439901249  0.4165655799631657
  0.6752851368048335  0.9066520011793775  0.8494482829126072
  0.2811804631102236  0.9953623104356466  0.0617428923840299
  0.2720020647572044  0.4085019125535470  0.0437055873927004
  0.6724526945899775  0.3020847865089127  0.8445116618512650
  0.8122375618384948  0.6628290460643494  0.1236339265520316
 
  0.00000000E+00  0.00000000E+00  0.00000000E+00
  0.00000000E+00  0.00000000E+00  0.00000000E+00
  0.00000000E+00  0.00000000E+00  0.00000000E+00
  0.00000000E+00  0.00000000E+00  0.00000000E+00
  0.00000000E+00  0.00000000E+00  0.00000000E+00
  0.00000000E+00  0.00000000E+00  0.00000000E+00
  0.00000000E+00  0.00000000E+00  0.00000000E+00
  0.00000000E+00  0.00000000E+00  0.00000000E+00
  0.00000000E+00  0.00000000E+00  0.00000000E+00
  0.00000000E+00  0.00000000E+00  0.00000000E+00
  0.00000000E+00  0.00000000E+00  0.00000000E+00
