pymatgen with grid density = 1436 / number of atoms
0
Gamma
7 4 3
