Sr2 Nb1 H9
1.0
3.689760 0.549517 0.905130
0.201543 5.731258 -1.432868
1.244553 -3.371034 7.534267
Sr Nb H
2 1 9
direct
0.642313 0.381162 0.304431 Sr
0.091483 0.454119 0.839838 Sr
0.164272 0.913198 0.333831 Nb
0.058402 0.341720 0.493998 H
0.350280 0.920824 0.513169 H
0.651692 0.905745 0.725662 H
0.504133 0.907189 0.811451 H
0.330556 0.911574 0.085258 H
0.700581 0.911242 0.260972 H
0.768748 0.170291 0.630450 H
0.023760 0.672464 0.391918 H
0.466062 0.479436 0.066201 H
