Sr1 Nb1 H8                              
   1.00000000000000     
     3.2574858286761987   -0.0706368553342817    0.4635233188798913
     0.0480554903185529    3.2831053537719925    0.2994960270212018
     2.4214318500113188    1.6555801368743168    8.9496080672848084
   H    Nb   H    Sr
     4     1     4     1
Direct
  0.1132392464945052  0.9879017160549246  0.0565929452323048
  0.2388039694736443  0.7351747467131016  0.3896223473041737
  0.5040288217612204  0.9120473442375783  0.1536203600040307
  0.3848776976687218  0.1759080954237431  0.8107526408717833
  0.7401807946135447  0.0747209417890198  0.9394452381966492
  0.8748343971901891  0.6663309378256336  0.8135538972501548
  0.6145412289574096  0.4855778059279351  0.0569073111703261
  0.4852834434126114  0.0845671955116671  0.5913554873355341
  0.3701401060979333  0.9491619869169713  0.5605599008289802
  0.8673572943301897  0.3208092295994282  0.2774488718060695
 
  0.00000000E+00  0.00000000E+00  0.00000000E+00
  0.00000000E+00  0.00000000E+00  0.00000000E+00
  0.00000000E+00  0.00000000E+00  0.00000000E+00
  0.00000000E+00  0.00000000E+00  0.00000000E+00
  0.00000000E+00  0.00000000E+00  0.00000000E+00
  0.00000000E+00  0.00000000E+00  0.00000000E+00
  0.00000000E+00  0.00000000E+00  0.00000000E+00
  0.00000000E+00  0.00000000E+00  0.00000000E+00
  0.00000000E+00  0.00000000E+00  0.00000000E+00
  0.00000000E+00  0.00000000E+00  0.00000000E+00
