pymatgen with grid density = 1612 / number of atoms
0
Monkhorst
8 4 4
