Sr1 Nb1 H7
1.0
3.153022 0.018841 0.007545
0.147652 5.232133 0.157391
0.123241 2.199024 5.439567
Sr Nb H
1 1 7
direct
0.433445 0.761392 0.665467 Sr
0.925142 0.357205 0.274881 Nb
0.310599 0.066703 0.886798 H
0.493517 0.982611 0.965377 H
0.919116 0.149382 0.619642 H
0.413439 0.488175 0.403015 H
0.936142 0.991791 0.315143 H
0.438169 0.318208 0.095117 H
0.917172 0.690908 0.984874 H
