H15                                     
   1.00000000000000     
     2.9852216296289651   -0.0848454531248165   -0.3266468696093390
    -1.3356505921150064    5.5289346136984276    0.2162682851143704
    -0.6347290831498290   -0.1193226996174325    7.9497914421190901
   H 
    15
Direct
  0.6198316598324407  0.0925738547946207  0.2771046072065378
  0.3056507561920577  0.4006417964258036  0.3639404227373731
  0.4620518836136439  0.4940193459332194  0.3167098085099290
  0.2081342240880245  0.7626523315982743  0.4928930112588010
  0.0955480259404850  0.8053900479684436  0.5584274594894134
  0.7316553774257166  0.0260564941761722  0.3487902490429730
  0.8690211654333494  0.7937590620574323  0.1578279671470370
  0.7449960480770463  0.8517458977302171  0.8454161754773983
  0.4102785075378529  0.8515784468257223  0.8462721475234897
  0.9847940667119970  0.6981735597880409  0.1407260588529025
  0.0802638198433294  0.8516562460219262  0.8458761997161590
  0.6979067659926189  0.3283600690988905  0.9353130539047182
  0.0176129946370783  0.3575730382631662  0.6477594254939737
  0.5437321671660456  0.3081583948927163  0.0013335438099135
  0.8602365375083160  0.2315924144253569  0.6527248698293798
 
  0.00000000E+00  0.00000000E+00  0.00000000E+00
  0.00000000E+00  0.00000000E+00  0.00000000E+00
  0.00000000E+00  0.00000000E+00  0.00000000E+00
  0.00000000E+00  0.00000000E+00  0.00000000E+00
  0.00000000E+00  0.00000000E+00  0.00000000E+00
  0.00000000E+00  0.00000000E+00  0.00000000E+00
  0.00000000E+00  0.00000000E+00  0.00000000E+00
  0.00000000E+00  0.00000000E+00  0.00000000E+00
  0.00000000E+00  0.00000000E+00  0.00000000E+00
  0.00000000E+00  0.00000000E+00  0.00000000E+00
  0.00000000E+00  0.00000000E+00  0.00000000E+00
  0.00000000E+00  0.00000000E+00  0.00000000E+00
  0.00000000E+00  0.00000000E+00  0.00000000E+00
  0.00000000E+00  0.00000000E+00  0.00000000E+00
  0.00000000E+00  0.00000000E+00  0.00000000E+00
