pymatgen with grid density = 1348 / number of atoms
0
Gamma
8 4 3
