Sr2 Nb1 H11                             
   1.00000000000000     
     5.0935136373677965    0.4649448000345214   -0.4713611288976132
    -0.3993493782263022    5.1988576759193306    0.0978931628937198
    -1.9089429439970254   -0.4168419376310647    5.8066660447137419
   Sr   Nb   H 
     2     1    11
Direct
  0.1237528456258415  0.7468057015664447  0.9820331211577766
  0.3936268513476193  0.2555021604679927  0.5371648387617836
  0.6953588097772953  0.2562791511789577  0.1321287986414921
  0.3127279291608172  0.7651622160206829  0.6338466725696692
  0.1760124500715666  0.7555489982901933  0.5168484985916688
  0.5268875452584184  0.0056610919455372  0.2528611839595017
  0.8612435716600153  0.2622765676774158  0.4644232413565734
  0.9852000320382535  0.5023809131672599  0.2499768974434488
  0.5107372976630402  0.4976517286729418  0.2574910759039002
  0.5864720775853874  0.5367267800438791  0.9325180168540731
  0.3129730595608420  0.2438596848543094  0.9322777241290213
  0.8783885653104536  0.2649260323947987  0.9287641648137193
 -0.0017969966040430  0.0232661069673131  0.2427513678103120
  0.6104429615444901  0.9727818667522777  0.9225673980070662
 
  0.00000000E+00  0.00000000E+00  0.00000000E+00
  0.00000000E+00  0.00000000E+00  0.00000000E+00
  0.00000000E+00  0.00000000E+00  0.00000000E+00
  0.00000000E+00  0.00000000E+00  0.00000000E+00
  0.00000000E+00  0.00000000E+00  0.00000000E+00
  0.00000000E+00  0.00000000E+00  0.00000000E+00
  0.00000000E+00  0.00000000E+00  0.00000000E+00
  0.00000000E+00  0.00000000E+00  0.00000000E+00
  0.00000000E+00  0.00000000E+00  0.00000000E+00
  0.00000000E+00  0.00000000E+00  0.00000000E+00
  0.00000000E+00  0.00000000E+00  0.00000000E+00
  0.00000000E+00  0.00000000E+00  0.00000000E+00
  0.00000000E+00  0.00000000E+00  0.00000000E+00
  0.00000000E+00  0.00000000E+00  0.00000000E+00
