pymatgen with grid density = 2781 / number of atoms
0
Gamma
8 3 4
