H19                                     
   1.00000000000000     
     4.6685079690151792    0.5260247068147903    0.2159313887609880
     1.0137454892948177    4.5223028920155190    0.2808853242876527
     1.0104714649763611    1.0377883306947724    5.7581931369639294
   H 
    19
Direct
  0.2503558867243486  0.8437453217744744  0.8250770188889680
  0.2935214019407817  0.9833492125334392  0.8275143232002354
  0.7395620904888145  0.0984423814434653  0.8402284963628789
  0.7637498440542492  0.2689308525085126  0.8895487156484186
  0.7769431964760433  0.8825476748430482  0.8334506537691522
  0.8125223066402971  0.6629560855290216  0.8702005691927277
  0.8020757528790340  0.4496788230873491  0.9095366397142285
  0.1161318306436270  0.5597830082156879  0.5525144652906293
  0.2184200466970102  0.6372984875434549  0.5756915025324126
  0.6167555879926745  0.1270812705722365  0.4306294173737245
  0.4502159420731898  0.1583282019632538  0.4741021846610814
  0.6841063712765781  0.4845688621838197  0.5346044011083320
  0.6810160777378776  0.6387842665685293  0.5522141557131875
  0.2764468696976899  0.3107276224955764  0.1534117933970806
  0.1316519194842874  0.3081130829672342  0.1237145281711216
  0.8910177385826236  0.8633132439420064  0.1649696186719754
  0.9900385951601186  0.8883262035334869  0.2347672916656298
  0.4267062001141902  0.6954015041307563  0.1625069554314468
  0.5289313413365813  0.7168858941646430  0.2314292692067635
 
  0.00000000E+00  0.00000000E+00  0.00000000E+00
  0.00000000E+00  0.00000000E+00  0.00000000E+00
  0.00000000E+00  0.00000000E+00  0.00000000E+00
  0.00000000E+00  0.00000000E+00  0.00000000E+00
  0.00000000E+00  0.00000000E+00  0.00000000E+00
  0.00000000E+00  0.00000000E+00  0.00000000E+00
  0.00000000E+00  0.00000000E+00  0.00000000E+00
  0.00000000E+00  0.00000000E+00  0.00000000E+00
  0.00000000E+00  0.00000000E+00  0.00000000E+00
  0.00000000E+00  0.00000000E+00  0.00000000E+00
  0.00000000E+00  0.00000000E+00  0.00000000E+00
  0.00000000E+00  0.00000000E+00  0.00000000E+00
  0.00000000E+00  0.00000000E+00  0.00000000E+00
  0.00000000E+00  0.00000000E+00  0.00000000E+00
  0.00000000E+00  0.00000000E+00  0.00000000E+00
  0.00000000E+00  0.00000000E+00  0.00000000E+00
  0.00000000E+00  0.00000000E+00  0.00000000E+00
  0.00000000E+00  0.00000000E+00  0.00000000E+00
  0.00000000E+00  0.00000000E+00  0.00000000E+00
