Sr2 Nb1 H9                              
   1.00000000000000     
     6.0759806180776428    0.0121953452013486    0.4658723913759093
    -0.0275196570109075    5.3812502899803256    0.0029266713592509
    -2.6635999639089225   -2.6944460882145345    3.8207064902060801
   Sr   H    Nb   Sr
     1     9     1     1
Direct
  0.2781971270046557  0.7156275119582508  0.7082206432320286
  0.2193487173099921  0.7412471935079233  0.2241998411204177
  0.2166721190248954  0.1386094868505743  0.1525647333542758
  0.2179382923156317  0.2058879289096298  0.6228015513053651
  0.9377447033484940  0.8173379696372953  0.4058712396734061
  0.6902607508520211  0.9480812112176644  0.8076381266248243
  0.9374148174594737  0.6737333631821424  0.7721927923213521
  0.6904575098983280  0.0252464264252881  0.2519543616444476
  0.9380780566674677  0.3101029461989627  0.2624544632470781
  0.6889878800575812  0.5837161901364298  0.8868759461680714
  0.9535674835952493  0.9399727809617509  0.1574419872905572
  0.5852935424662080  0.4836429910140781  0.2465203140181772
 
  0.00000000E+00  0.00000000E+00  0.00000000E+00
  0.00000000E+00  0.00000000E+00  0.00000000E+00
  0.00000000E+00  0.00000000E+00  0.00000000E+00
  0.00000000E+00  0.00000000E+00  0.00000000E+00
  0.00000000E+00  0.00000000E+00  0.00000000E+00
  0.00000000E+00  0.00000000E+00  0.00000000E+00
  0.00000000E+00  0.00000000E+00  0.00000000E+00
  0.00000000E+00  0.00000000E+00  0.00000000E+00
  0.00000000E+00  0.00000000E+00  0.00000000E+00
  0.00000000E+00  0.00000000E+00  0.00000000E+00
  0.00000000E+00  0.00000000E+00  0.00000000E+00
  0.00000000E+00  0.00000000E+00  0.00000000E+00
