Sr1 Nb1 H6                              
   1.00000000000000     
     3.4015519850016558   -0.4546986526449256    0.1377752086390891
     0.7878177455218911    5.3339604891796126   -1.5568637362658260
     0.0173860320419664    0.9821570460073951    3.3058702054659270
   H    Sr   Nb   H 
     5     1     1     1
Direct
  0.8733334803816327  0.0773759524830370  0.3604344854354312
  0.3695450677919012  0.2389475057691782  0.3201375892132115
  0.3665055536852742  0.5907060364276396  0.3247847221317494
  0.8680315081303793  0.7527086360517798  0.3507231909418083
  0.8409471433699008  0.5897182312890162  0.8503442790217443
  0.3521805644506996  0.9146850404126934  0.8353435551381728
  0.8295479514268452  0.4139118649746437  0.3120427788983882
  0.8403617307633426  0.2390847325920052  0.8552753992195076
 
  0.00000000E+00  0.00000000E+00  0.00000000E+00
  0.00000000E+00  0.00000000E+00  0.00000000E+00
  0.00000000E+00  0.00000000E+00  0.00000000E+00
  0.00000000E+00  0.00000000E+00  0.00000000E+00
  0.00000000E+00  0.00000000E+00  0.00000000E+00
  0.00000000E+00  0.00000000E+00  0.00000000E+00
  0.00000000E+00  0.00000000E+00  0.00000000E+00
  0.00000000E+00  0.00000000E+00  0.00000000E+00
