Sr1 Nb2 H17                             
   1.00000000000000     
     5.0263886460385052   -0.5822377429161697   -0.4372914891830633
     0.4705908185031732    4.8451859421390049   -0.1140734625232345
    -0.1390943772221016   -0.1148767682933712    6.1084051899964722
   H    Nb   H    Sr   H    Nb   H 
     2     1     3     1     4     1     8
Direct
  0.3664599761611306  0.4946253521235128  0.9861453294266663
  0.2222057149162583  0.3459377724625062  0.3401004184537980
  0.1155660664661914  0.7744849944294901  0.9144408262517314
  0.7814172471239912  0.8057604366896929  0.7738183261056159
  0.9213622890282548  0.8105626736440121  0.3925401177802176
  0.0190981061224107  0.1407825283417811  0.9912066555074786
  0.5707758384359999  0.2591906624731725  0.6635930794281804
  0.5206874212895002  0.7283412979301437  0.4572460725664542
  0.2791104831151463  0.7216503011277504  0.6683061202147008
  0.6886327648728328  0.4022450538533985  0.2973619536300264
  0.8927702369697409  0.6399857074809610  0.4030401086447286
  0.6162509336320462  0.7288763701711505  0.1823662419708016
  0.9091690704986916  0.0446954400923653  0.0678796694703274
  0.6805170654924688  0.0622731107120714  0.3131372996812719
  0.8738491105302247  0.5256839612570433  0.0404411700099416
  0.0167697578632810  0.4801423287274155  0.7300709864973302
  0.4337074761663262  0.9784518037273361  0.9606807896037545
  0.2548563424365307  0.8050734190916926  0.2150073374388253
  0.1453850808260432  0.2327537086008238  0.3908189380392198
  0.0959830180529410  0.0459410770636754  0.7201595592789591
 
  0.00000000E+00  0.00000000E+00  0.00000000E+00
  0.00000000E+00  0.00000000E+00  0.00000000E+00
  0.00000000E+00  0.00000000E+00  0.00000000E+00
  0.00000000E+00  0.00000000E+00  0.00000000E+00
  0.00000000E+00  0.00000000E+00  0.00000000E+00
  0.00000000E+00  0.00000000E+00  0.00000000E+00
  0.00000000E+00  0.00000000E+00  0.00000000E+00
  0.00000000E+00  0.00000000E+00  0.00000000E+00
  0.00000000E+00  0.00000000E+00  0.00000000E+00
  0.00000000E+00  0.00000000E+00  0.00000000E+00
  0.00000000E+00  0.00000000E+00  0.00000000E+00
  0.00000000E+00  0.00000000E+00  0.00000000E+00
  0.00000000E+00  0.00000000E+00  0.00000000E+00
  0.00000000E+00  0.00000000E+00  0.00000000E+00
  0.00000000E+00  0.00000000E+00  0.00000000E+00
  0.00000000E+00  0.00000000E+00  0.00000000E+00
  0.00000000E+00  0.00000000E+00  0.00000000E+00
  0.00000000E+00  0.00000000E+00  0.00000000E+00
  0.00000000E+00  0.00000000E+00  0.00000000E+00
  0.00000000E+00  0.00000000E+00  0.00000000E+00
