H14                                     
   1.00000000000000     
     2.4737085915140908    0.0865967673560088   -0.0540077223457815
     0.1442119392490960    4.1512270619004008    0.2511905139107470
     0.0360710883038025    1.1330016459521661    8.0783111668766807
   H 
    14
Direct
  0.0140623497416556  0.8100420934394610  0.2705718737886801
  0.1079672275274915  0.7847095638110054  0.3596122391049649
  0.6532127936925505  0.6852803601215733  0.6273390339586216
  0.7392036459953087  0.5809680372675239  0.5665640033326348
  0.1546463937992833  0.5183466252144588  0.9262981071790675
  0.2466264774508895  0.4691585677232332  0.8473967865187619
  0.5815266369310226  0.8305382403612892  0.0548639379686722
  0.8984738082245076  0.0248600478852121  0.8029913072287237
  0.7261287346966457  0.0872715864695883  0.7262672467388247
  0.4599716852649601  0.0007797514563380  0.0235990592182969
  0.6499856447008633  0.4037691756490716  0.2245815716797179
  0.4886037358427593  0.2982347293661567  0.1814721109743063
  0.3437042681298151  0.1832319220756926  0.4527269705784214
  0.1905285980022442  0.1963842991593699  0.5295857517302944
 
  0.00000000E+00  0.00000000E+00  0.00000000E+00
  0.00000000E+00  0.00000000E+00  0.00000000E+00
  0.00000000E+00  0.00000000E+00  0.00000000E+00
  0.00000000E+00  0.00000000E+00  0.00000000E+00
  0.00000000E+00  0.00000000E+00  0.00000000E+00
  0.00000000E+00  0.00000000E+00  0.00000000E+00
  0.00000000E+00  0.00000000E+00  0.00000000E+00
  0.00000000E+00  0.00000000E+00  0.00000000E+00
  0.00000000E+00  0.00000000E+00  0.00000000E+00
  0.00000000E+00  0.00000000E+00  0.00000000E+00
  0.00000000E+00  0.00000000E+00  0.00000000E+00
  0.00000000E+00  0.00000000E+00  0.00000000E+00
  0.00000000E+00  0.00000000E+00  0.00000000E+00
  0.00000000E+00  0.00000000E+00  0.00000000E+00
