Sr1 Nb2 H18                             
   1.00000000000000     
     5.1600060356850781    0.0594110446201168   -0.1950098366847705
     1.7706811438222883    4.7050672178118766   -0.5937438310124526
    -0.2389101140368491    0.1293986751210376    6.5293699031815375
   H    Nb   H    Sr
     3     2    15     1
Direct
  0.6551275751698257  0.1513213666893975  0.9127826381994667
  0.5933980183751606  0.1315600857516763  0.8049785561298233
  0.4383112551449564  0.4667136602651997  0.1511420036819844
  0.4733881540476158  0.7934165257082558  0.3367216988602665
  0.1223475096627441  0.4290217470892655  0.2691789496886244
  0.2694716493564378  0.5907581468931452 -0.1055601667625872
  0.9807368161835701  0.6571031282587977  0.0632221153806018
  0.5939583798667690  0.8590208955673825  0.0910185579272796
  0.4097407967886906  0.0136602381756657  0.1136043115976336
  0.0844692916647279 -0.0383099830445037  0.6497628969834550
  0.9670277322219524  0.1967471818896842  0.3833064392770865
  0.7874217578400302  0.3614316057224500  0.2961101379955208
  0.8816430894120546  0.6834720727411934  0.4563742141898675
  0.0493204821268496  0.2292656631611379  0.0340459123105931
  0.4121421617454600  0.5262724900520004  0.4810666124270499
  0.1088477000253855  0.8144437869726111  0.2808660275204352
  0.0669402033180334 -0.0192995474096130  0.7646584865834736
  0.3964357554773739  0.1724242715188898  0.4645263043642944
  0.2963111652651091  0.5823888427691917  0.7826377383586554
  0.5069278359339621  0.8416601562548086  0.6145849270440490
  0.8407336703732805  0.4773986649733705  0.7600496382424331
 
  0.00000000E+00  0.00000000E+00  0.00000000E+00
  0.00000000E+00  0.00000000E+00  0.00000000E+00
  0.00000000E+00  0.00000000E+00  0.00000000E+00
  0.00000000E+00  0.00000000E+00  0.00000000E+00
  0.00000000E+00  0.00000000E+00  0.00000000E+00
  0.00000000E+00  0.00000000E+00  0.00000000E+00
  0.00000000E+00  0.00000000E+00  0.00000000E+00
  0.00000000E+00  0.00000000E+00  0.00000000E+00
  0.00000000E+00  0.00000000E+00  0.00000000E+00
  0.00000000E+00  0.00000000E+00  0.00000000E+00
  0.00000000E+00  0.00000000E+00  0.00000000E+00
  0.00000000E+00  0.00000000E+00  0.00000000E+00
  0.00000000E+00  0.00000000E+00  0.00000000E+00
  0.00000000E+00  0.00000000E+00  0.00000000E+00
  0.00000000E+00  0.00000000E+00  0.00000000E+00
  0.00000000E+00  0.00000000E+00  0.00000000E+00
  0.00000000E+00  0.00000000E+00  0.00000000E+00
  0.00000000E+00  0.00000000E+00  0.00000000E+00
  0.00000000E+00  0.00000000E+00  0.00000000E+00
  0.00000000E+00  0.00000000E+00  0.00000000E+00
  0.00000000E+00  0.00000000E+00  0.00000000E+00
