pymatgen with grid density = 2674 / number of atoms
0
Gamma
9 5 3
