Sr1 Nb2 H7                              
   1.00000000000000     
     3.2738758512098132    0.3014898525029323   -0.2016979783239908
    -0.3792444823939561    4.7575459277922256    0.9719206902071262
    -1.2310413542083196    0.4725125935762137    7.5150430986252736
   Sr   Nb   H 
     1     2     7
Direct
  0.1173768174441314  0.5961554749887005  0.7450047799960349
  0.3829440219769344  0.9501519954418037  0.2804722379826688
  0.8567422283869436  0.4749146932221321  0.2278358225231036
  0.7325260668143381  0.6044394260274275  0.9782743292055706
  0.6210632194368609  0.2527653813974496  0.7478553053293809
  0.4285489037756939  0.5341343697247452  0.3734332265073886
  0.9340294526500891  0.0757915113475845  0.3845385293017831
  0.3047087139721570  0.3474791200556079  0.1215258223073388
  0.5084216959054801  0.8726208636071346  0.5302503211582652
  0.8131818796373699  0.8885781641874227  0.1395286256884750
 
  0.00000000E+00  0.00000000E+00  0.00000000E+00
  0.00000000E+00  0.00000000E+00  0.00000000E+00
  0.00000000E+00  0.00000000E+00  0.00000000E+00
  0.00000000E+00  0.00000000E+00  0.00000000E+00
  0.00000000E+00  0.00000000E+00  0.00000000E+00
  0.00000000E+00  0.00000000E+00  0.00000000E+00
  0.00000000E+00  0.00000000E+00  0.00000000E+00
  0.00000000E+00  0.00000000E+00  0.00000000E+00
  0.00000000E+00  0.00000000E+00  0.00000000E+00
  0.00000000E+00  0.00000000E+00  0.00000000E+00
