Sr1 Nb2 H20                             
   1.00000000000000     
     4.9507900590325136   -0.1686608176379150   -0.2072829094346021
    -0.4018841484270841    5.5379282235974028    0.5401530726160978
    -0.3211316608276872    0.2429375959709339    6.3416919508810157
   H    Nb   H    Nb   H    Sr   H 
     5     1     2     1     4     1     9
Direct
  0.5371936382450593  0.8065046052078163  0.8993072744138935
  0.5573222007641877  0.5134686048259995  0.1182965205810723
  0.1539563908398541  0.8482793175713467  0.0656030308567258
  0.0251394293159955  0.1194686442873019  0.1204253347905005
  0.8815481096311694  0.9232111029035514  0.8334208538699660
  0.8040975138302755  0.8161048863170351  0.1075641650487815
  0.4760432867113750  0.2565893171227717  0.3757722130180940
  0.1401094526460011  0.3217074898792630  0.3775029749825668
  0.7978050893692105  0.2907086432456337  0.2617175459388391
  0.3499940838951230  0.9219063235718217  0.4393421691833254
  0.2063172644666829  0.8669239084502458  0.4589943832186129
  0.7841224350139181  0.9457032414904978  0.3653286052540835
  0.8197250358363553  0.2228695166025987  0.5447960677717748
  0.2955801644566166  0.1657636785417836  0.7385644550793107
  0.1042209615627815  0.5967109558235537  0.6701119833574001
  0.1272733658064214  0.6138304881464820  0.7868738106773651
  0.7682734917844383  0.3580448784100481  0.8551654435780360
  0.7778364356511416  0.3446395471060696  0.7381543501598399
  0.5395781038425856  0.6338440406357168  0.6607543929457881
  0.5416112410155512  0.5858931594604377  0.5557211605544097
  0.5697453574798137  0.0789073731164279  0.0886569942908159
  0.8598877890372468  0.5978497770343425  0.3685686508231726
 -0.0000728412018033  0.5393195002492465  0.0879176196056319
 
  0.00000000E+00  0.00000000E+00  0.00000000E+00
  0.00000000E+00  0.00000000E+00  0.00000000E+00
  0.00000000E+00  0.00000000E+00  0.00000000E+00
  0.00000000E+00  0.00000000E+00  0.00000000E+00
  0.00000000E+00  0.00000000E+00  0.00000000E+00
  0.00000000E+00  0.00000000E+00  0.00000000E+00
  0.00000000E+00  0.00000000E+00  0.00000000E+00
  0.00000000E+00  0.00000000E+00  0.00000000E+00
  0.00000000E+00  0.00000000E+00  0.00000000E+00
  0.00000000E+00  0.00000000E+00  0.00000000E+00
  0.00000000E+00  0.00000000E+00  0.00000000E+00
  0.00000000E+00  0.00000000E+00  0.00000000E+00
  0.00000000E+00  0.00000000E+00  0.00000000E+00
  0.00000000E+00  0.00000000E+00  0.00000000E+00
  0.00000000E+00  0.00000000E+00  0.00000000E+00
  0.00000000E+00  0.00000000E+00  0.00000000E+00
  0.00000000E+00  0.00000000E+00  0.00000000E+00
  0.00000000E+00  0.00000000E+00  0.00000000E+00
  0.00000000E+00  0.00000000E+00  0.00000000E+00
  0.00000000E+00  0.00000000E+00  0.00000000E+00
  0.00000000E+00  0.00000000E+00  0.00000000E+00
  0.00000000E+00  0.00000000E+00  0.00000000E+00
  0.00000000E+00  0.00000000E+00  0.00000000E+00
