H20                                     
   1.00000000000000     
     2.9270880777795707   -0.2192176230617209   -0.0557096703167566
    -0.3880642718849209    7.4378822645506490    0.0614521446135694
    -0.2223285404601407   -1.4372149071204876    7.2390684552653575
   H 
    20
Direct
  0.7439556927692534  0.1477638432201977  0.1070436762673917
  0.6233449109075710  0.2318922452246219  0.1275111498875904
  0.2243097846510032  0.4862513848968810  0.1874423166565486
  0.4301901856531224  0.5470129283121619  0.1648996630960510
  0.0543528302128950  0.8030043231512024  0.1488611450044529
  0.8975812845274651  0.8753452468538030  0.1627696621067149
  0.9038621149321956  0.4184635528129557  0.4750728055691920
  0.7536286399611207  0.4934749112380193  0.4891998436867218
  0.1447518923899740  0.1297329720073383  0.4638649410187164
  0.2769388710239281  0.1539848418489946  0.3847243203368507
  0.8468695658035391  0.8139492676229896  0.5011137650829812
  0.5707400109861178  0.2487759593111782  0.8028428439973138
  0.6830747331356148  0.2893251886163911  0.7271387845012622
  0.9881085865306534  0.0139983314621055  0.8172889524382995
  0.1353383389364076  0.9536073669997998  0.8557835033225591
  0.5125219209156986  0.8139411584071076  0.5011475541302636
  0.1788764058005534  0.8133449789163518  0.5012275615434022
  0.9210412281560122  0.6255983453262366  0.8333288239701935
  0.2544084889003868  0.6257040414954024  0.8330988849257468
  0.5888195138064942  0.6262761122762678  0.8332978024577371
 
  0.00000000E+00  0.00000000E+00  0.00000000E+00
  0.00000000E+00  0.00000000E+00  0.00000000E+00
  0.00000000E+00  0.00000000E+00  0.00000000E+00
  0.00000000E+00  0.00000000E+00  0.00000000E+00
  0.00000000E+00  0.00000000E+00  0.00000000E+00
  0.00000000E+00  0.00000000E+00  0.00000000E+00
  0.00000000E+00  0.00000000E+00  0.00000000E+00
  0.00000000E+00  0.00000000E+00  0.00000000E+00
  0.00000000E+00  0.00000000E+00  0.00000000E+00
  0.00000000E+00  0.00000000E+00  0.00000000E+00
  0.00000000E+00  0.00000000E+00  0.00000000E+00
  0.00000000E+00  0.00000000E+00  0.00000000E+00
  0.00000000E+00  0.00000000E+00  0.00000000E+00
  0.00000000E+00  0.00000000E+00  0.00000000E+00
  0.00000000E+00  0.00000000E+00  0.00000000E+00
  0.00000000E+00  0.00000000E+00  0.00000000E+00
  0.00000000E+00  0.00000000E+00  0.00000000E+00
  0.00000000E+00  0.00000000E+00  0.00000000E+00
  0.00000000E+00  0.00000000E+00  0.00000000E+00
  0.00000000E+00  0.00000000E+00  0.00000000E+00
