Sr1 Nb1 H9                              
   1.00000000000000     
     3.3274405760077865   -0.0433480755122090   -0.3726641393048200
     0.1040159072041350    4.6087033503708597    0.7406085922143689
     0.7135323056560207    1.2294739608152174    5.7334824129097166
   H    Sr   H    Nb   H 
     3     1     2     1     4
Direct
  0.1194212330900465  0.2771442761471823  0.6701793126791463
  0.3460272360006050  0.2812641268955606  0.6768956505648844
  0.7252616298257923  0.6950604052877213  0.1661259987245994
  0.2195687747584051  0.6729908012017843  0.8596732171903628
  0.7037571515860912  0.2858015244218699  0.9534247071582008
  0.1826528390719264  0.0296134558792728  0.0891451529241165
  0.7399270657960397  0.0095206321381229  0.2831348961357601
  0.2074471538818599  0.2576107261093965  0.2862789632028791
  0.1923975772160957  0.8069475503906176  0.4277457403736075
  0.6870037004891226  0.6236200013850836  0.5099553175893358
  0.7410726382840069  0.9982065001433850  0.5957480434571003
 
  0.00000000E+00  0.00000000E+00  0.00000000E+00
  0.00000000E+00  0.00000000E+00  0.00000000E+00
  0.00000000E+00  0.00000000E+00  0.00000000E+00
  0.00000000E+00  0.00000000E+00  0.00000000E+00
  0.00000000E+00  0.00000000E+00  0.00000000E+00
  0.00000000E+00  0.00000000E+00  0.00000000E+00
  0.00000000E+00  0.00000000E+00  0.00000000E+00
  0.00000000E+00  0.00000000E+00  0.00000000E+00
  0.00000000E+00  0.00000000E+00  0.00000000E+00
  0.00000000E+00  0.00000000E+00  0.00000000E+00
  0.00000000E+00  0.00000000E+00  0.00000000E+00
