Sr1 Nb1 H23
1.0
4.752242 -0.000000 0.000000
0.647545 5.957168 -0.000000
0.269763 1.038555 6.267366
H Nb H Sr
22 1 1 1
direct
0.034468 0.655938 0.813390 H
0.758546 0.703518 0.853949 H
0.492989 0.245423 0.634656 H
0.603775 0.184856 0.709383 H
0.399367 0.534421 0.673249 H
0.519044 0.530995 0.759385 H
0.006521 0.009089 0.469570 H
0.001137 0.126097 0.506634 H
0.934484 0.988854 0.688381 H
0.034468 0.655938 0.313390 H
0.187926 0.713134 0.352875 H
0.970328 0.550099 0.189904 H
0.778188 0.682878 0.362179 H
0.454031 0.441274 0.231184 H
0.553724 0.509187 0.233636 H
0.312871 0.236817 0.210429 H
0.277987 0.165399 0.122089 H
0.006521 0.009089 0.969570 H
0.001137 0.126097 0.006634 H
0.813136 0.187549 0.096561 H
0.846305 0.244400 0.207815 H
0.251437 0.948417 0.996703 H
0.964860 0.812559 0.056827 Nb
0.656971 0.935668 0.039771 H
0.463236 0.896245 0.542585 Sr
