Sr2 Nb1 H15                             
   1.00000000000000     
     6.2311654575102278    0.2301693816333267    0.1623654147119728
    -0.2757015931063009    5.0378728896011040   -0.0335849085589545
    -1.6373146998620698   -0.3527091808985675    4.8951995638297632
   H    Nb   H    Sr   H    Sr   H 
     3     1     9     1     1     1     2
Direct
  0.4119857876151572  0.1583027510459540  0.2210413589597104
  0.4756842678242502  0.2230825346084481  0.1328557529162082
  0.7819401767472741  0.8532188288915294  0.4022324588467958
  0.9050490553234180  0.6249028063393048  0.1948405094604438
  0.7873080098844158  0.3713085419759690  0.9136544229541077
  0.6016610571566758  0.5950907725377153  0.0909231646626044
  0.1055345642335213  0.3586996630131128  0.2545427654529927
  0.3444539530901101  0.8070743986171295  0.9053360805154754
  0.1039086697344164  0.6393668786178401  0.9912218856624609
  0.9821987761781236  0.9959935663404161  0.2156196206562170
  0.1117722589528982  0.9290024586490346  0.2833063490515730
  0.0999598446113241  0.6612344840024034  0.5406105538682094
  0.3931546048622813  0.9171729487796079  0.8367329899071545
  0.0504960480691433  0.1425230092536878  0.7435224693026852
  0.3979452588343544  0.1280999689115070  0.6057767449962812
  0.5021050717640689  0.5857657309935363  0.5380157145515199
  0.7889870951280946  0.8427056579599619  0.9134332833873591
  0.8069184999904878  0.3801579994628583  0.3919178748481942
 
  0.00000000E+00  0.00000000E+00  0.00000000E+00
  0.00000000E+00  0.00000000E+00  0.00000000E+00
  0.00000000E+00  0.00000000E+00  0.00000000E+00
  0.00000000E+00  0.00000000E+00  0.00000000E+00
  0.00000000E+00  0.00000000E+00  0.00000000E+00
  0.00000000E+00  0.00000000E+00  0.00000000E+00
  0.00000000E+00  0.00000000E+00  0.00000000E+00
  0.00000000E+00  0.00000000E+00  0.00000000E+00
  0.00000000E+00  0.00000000E+00  0.00000000E+00
  0.00000000E+00  0.00000000E+00  0.00000000E+00
  0.00000000E+00  0.00000000E+00  0.00000000E+00
  0.00000000E+00  0.00000000E+00  0.00000000E+00
  0.00000000E+00  0.00000000E+00  0.00000000E+00
  0.00000000E+00  0.00000000E+00  0.00000000E+00
  0.00000000E+00  0.00000000E+00  0.00000000E+00
  0.00000000E+00  0.00000000E+00  0.00000000E+00
  0.00000000E+00  0.00000000E+00  0.00000000E+00
  0.00000000E+00  0.00000000E+00  0.00000000E+00
