Sr1 Nb2 H7                              
   1.00000000000000     
     3.1957434684457033   -0.1851656683239738    0.5635345738733833
     0.7311767891413787    4.4403561375575684   -1.3494794556713801
     2.4736276766048282   -0.8789465655473074    7.2407874733022632
   H    Nb   H    Nb   H    Sr   H 
     1     1     4     1     1     1     1
Direct
  0.9988777734224654  0.0502747429170456  0.5777853537449783
  0.2946844173899867  0.3497830490778198  0.4749795072894527
  0.1182721237595907  0.1632026443136060  0.2625600949455498
  0.6017726042478287  0.4526948908712961  0.6389965788601811
  0.9296610259686848  0.6311481662707531  0.7580292607436183
  0.5548892711128649  0.4275434196180841  0.9937127554834265
  0.2115210622481867  0.7250131313532738  0.2737028108331149
  0.5427175797896804  0.6995404871837504  0.4305027353799760
  0.2414746459998494  0.0501288032072335  0.8597316049849347
  0.8920574960608763  0.7452036651871177  0.1151522977347702
 
  0.00000000E+00  0.00000000E+00  0.00000000E+00
  0.00000000E+00  0.00000000E+00  0.00000000E+00
  0.00000000E+00  0.00000000E+00  0.00000000E+00
  0.00000000E+00  0.00000000E+00  0.00000000E+00
  0.00000000E+00  0.00000000E+00  0.00000000E+00
  0.00000000E+00  0.00000000E+00  0.00000000E+00
  0.00000000E+00  0.00000000E+00  0.00000000E+00
  0.00000000E+00  0.00000000E+00  0.00000000E+00
  0.00000000E+00  0.00000000E+00  0.00000000E+00
  0.00000000E+00  0.00000000E+00  0.00000000E+00
