Sr1 Nb1 H7                              
   1.00000000000000     
     3.5587515165727006    0.1499684801532535   -0.0895042125820423
     0.0486189802021621    3.6475722409380129    0.3251725941229489
    -0.1817181445460626   -0.8122335988633230    5.4240671042323108
   Sr   H    Nb   H 
     1     5     1     2
Direct
  0.0209082741323544  0.3105147316162282  0.9949735775521803
  0.4854200273825169  0.7613539223125937  0.1583170381474142
  0.5648422578733614  0.2900982239254358  0.3325605913975079
  0.0758960637266046  0.4501630089400871  0.4374054125981552
  0.0329663090590361  0.9207173401073246  0.3499444875611459
  0.0687343587620830  0.8062038308803107  0.6887363640507755
  0.4638772496350007  0.7359802682107405  0.4967942745210035
  0.4834348494656736  0.3333125035942153  0.6808098387911830
  0.5854836099633747  0.8517651704130740  0.8307314153806262
 
  0.00000000E+00  0.00000000E+00  0.00000000E+00
  0.00000000E+00  0.00000000E+00  0.00000000E+00
  0.00000000E+00  0.00000000E+00  0.00000000E+00
  0.00000000E+00  0.00000000E+00  0.00000000E+00
  0.00000000E+00  0.00000000E+00  0.00000000E+00
  0.00000000E+00  0.00000000E+00  0.00000000E+00
  0.00000000E+00  0.00000000E+00  0.00000000E+00
  0.00000000E+00  0.00000000E+00  0.00000000E+00
  0.00000000E+00  0.00000000E+00  0.00000000E+00
