Sr1 Nb1 H6
1.0
3.505082 -0.421031 0.585234
-1.643755 3.177669 0.293639
2.113292 0.582161 7.125569
Sr Nb H
1 1 6
direct
0.438314 0.393509 0.557450 Sr
0.380820 0.410290 0.069957 Nb
0.008110 0.200884 0.364006 H
0.605950 0.971213 0.682229 H
0.519977 0.817047 0.804701 H
0.838789 0.549753 0.774622 H
0.057368 0.741894 0.064917 H
0.635883 0.034387 0.125673 H
