H16                                     
   1.00000000000000     
     4.1917828394762182   -0.3091250181409920   -0.2402639149196939
     1.0521006552613226    4.8567709071036074   -0.1423208318069813
     0.0745304192429581    0.3312916697286314    4.4645134584605914
   H 
    16
Direct
  0.8113976469182562  0.8562966335801493  0.6845579333652498
  0.7107734603074864  0.7902217476984589  0.7905503803362850
  0.8320868867320340  0.6102922554091949  0.2512191262710932
  0.6938819247857245  0.5326885086529415  0.2369463252285410
  0.2277790300724945  0.5536521220740572  0.5510708690278040
  0.3052880603253917  0.6748405438019114  0.5104931961821132
  0.6971518184383156  0.3691206646608058  0.7215929800190998
  0.8530840741136211  0.2824500893768042  0.7638876666938548
  0.3620009609941194  0.3399873852118532  0.0244223190562995
  0.1913690479817689  0.3975483459039702  0.0421899276674144
  0.3282328749042464  0.9007343698732737  0.0609821892891308
  0.2002344042240831  0.8341948102489267  0.9856534950498822
  0.6919593620193702  0.0687388117032817  0.2908318836661904
  0.8232047252428187  0.0672282120154072  0.1838443923715839
  0.1986624775203554  0.1336909734004911  0.4666063941637292
  0.3298152454199089  0.0948525263884653  0.5854799216117281
 
  0.00000000E+00  0.00000000E+00  0.00000000E+00
  0.00000000E+00  0.00000000E+00  0.00000000E+00
  0.00000000E+00  0.00000000E+00  0.00000000E+00
  0.00000000E+00  0.00000000E+00  0.00000000E+00
  0.00000000E+00  0.00000000E+00  0.00000000E+00
  0.00000000E+00  0.00000000E+00  0.00000000E+00
  0.00000000E+00  0.00000000E+00  0.00000000E+00
  0.00000000E+00  0.00000000E+00  0.00000000E+00
  0.00000000E+00  0.00000000E+00  0.00000000E+00
  0.00000000E+00  0.00000000E+00  0.00000000E+00
  0.00000000E+00  0.00000000E+00  0.00000000E+00
  0.00000000E+00  0.00000000E+00  0.00000000E+00
  0.00000000E+00  0.00000000E+00  0.00000000E+00
  0.00000000E+00  0.00000000E+00  0.00000000E+00
  0.00000000E+00  0.00000000E+00  0.00000000E+00
  0.00000000E+00  0.00000000E+00  0.00000000E+00
