Sr1 Nb2 H10
1.0
3.221199 0.120298 -0.142980
-0.189665 4.625114 -0.176124
-1.238243 -1.744720 6.978709
Sr Nb H
1 2 10
direct
0.344483 0.344549 0.046733 Sr
0.035459 0.046523 0.428081 Nb
0.677746 0.675824 0.713042 Nb
0.548775 0.790875 0.453597 H
0.112180 0.454563 0.581179 H
0.559949 0.291655 0.474673 H
0.161020 0.954289 0.678377 H
0.759572 0.045645 0.878007 H
0.253116 0.719949 0.863753 H
0.810828 0.719378 0.979101 H
0.712713 0.340669 0.785223 H
0.959604 0.313458 0.276927 H
0.444387 0.937957 0.243923 H
