pymatgen with grid density = 1418 / number of atoms
0
Gamma
5 5 4
