Sr1 Nb5 H19                             
   1.00000000000000     
     3.3839924384261830    0.0058780868910178   -0.2419817678491636
    -0.0709823981676046    6.7096973601667580    0.0115684213946991
    -1.0247135529068538   -1.6471168338477595    7.9681186407424365
   Nb   H    Nb   H    Nb   H    Nb   H    Sr
     1     7     1     5     1     4     2     3     1
Direct
  0.4427531012346531  0.7719687179592949  0.2959583262186262
 -0.0074670203737197  0.7805240771864500  0.4012313841593720
  0.5819753954680985  0.8341245106225941  0.5367949205917352
  0.5538014457641317  0.0722764645517931  0.4211316324510809
 -0.0229078641646539  0.3712320425036547  0.3850006603651404
  0.9161777528202301  0.1263614737644696  0.2562486698712642
  0.6647578847557348  0.9060085926449188  0.7885801338316627
  0.2447316496353442 -0.1049560001088084  0.9247873054378661
 -0.1966718821293386  0.9618285605872896  0.0340865283021228
  0.3585449223385692  0.9812826180020465  0.1651607458503956
 -0.0844344940906473  0.1844993210407771  0.9104946302010988
  0.4985893421864275  0.2191682521313766  0.0550456540921485
  0.3048312432573239  0.2026985705472779  0.8042385932350778
  0.2385867313841686  0.4856774913938669  0.9225560152792478
  0.7896785306544037  0.4617151234036623  0.0202800689409426
  0.1555929493371993  0.9794167276601086  0.6369911240799216
  0.6988670640835858  0.4080293597825531  0.7684148889192972
  0.7359254367450873  0.6829069042417135  0.9039690499649030
  0.3430851324826059  0.4996720555411188  0.1627376324547119
  0.6331032509530317  0.1221116636074280  0.6658452222247262
  0.4305829649151908  0.2816663186109665  0.2829540618819951
  0.1763165664102538  0.2464821182016111  0.5837871406677296
  0.5066486898513587  0.5479054035029539  0.4256263065638194
  0.8687981503737154  0.7368027733152454  0.1579134410846126
  0.1287000561072277  0.6213478593056486  0.6573098633304750
 
  0.00000000E+00  0.00000000E+00  0.00000000E+00
  0.00000000E+00  0.00000000E+00  0.00000000E+00
  0.00000000E+00  0.00000000E+00  0.00000000E+00
  0.00000000E+00  0.00000000E+00  0.00000000E+00
  0.00000000E+00  0.00000000E+00  0.00000000E+00
  0.00000000E+00  0.00000000E+00  0.00000000E+00
  0.00000000E+00  0.00000000E+00  0.00000000E+00
  0.00000000E+00  0.00000000E+00  0.00000000E+00
  0.00000000E+00  0.00000000E+00  0.00000000E+00
  0.00000000E+00  0.00000000E+00  0.00000000E+00
  0.00000000E+00  0.00000000E+00  0.00000000E+00
  0.00000000E+00  0.00000000E+00  0.00000000E+00
  0.00000000E+00  0.00000000E+00  0.00000000E+00
  0.00000000E+00  0.00000000E+00  0.00000000E+00
  0.00000000E+00  0.00000000E+00  0.00000000E+00
  0.00000000E+00  0.00000000E+00  0.00000000E+00
  0.00000000E+00  0.00000000E+00  0.00000000E+00
  0.00000000E+00  0.00000000E+00  0.00000000E+00
  0.00000000E+00  0.00000000E+00  0.00000000E+00
  0.00000000E+00  0.00000000E+00  0.00000000E+00
  0.00000000E+00  0.00000000E+00  0.00000000E+00
  0.00000000E+00  0.00000000E+00  0.00000000E+00
  0.00000000E+00  0.00000000E+00  0.00000000E+00
  0.00000000E+00  0.00000000E+00  0.00000000E+00
  0.00000000E+00  0.00000000E+00  0.00000000E+00
