pymatgen with grid density = 1906 / number of atoms
0
Gamma
7 7 4
