H17                                     
   1.00000000000000     
     3.0897297198014755    0.0014613930989328   -0.1692340248755834
     1.4728776574820699    4.6295662866656722   -0.7984063044805461
    -0.4153258621090950    0.7264907672041558    9.7765985977279009
   H 
    17
Direct
  0.8169379960683597  0.9495829844831984  0.7949636575265967
  0.6720718408531235  0.8575388355733625  0.7659271179737992
  0.9227984308070601  0.5550942348165810  0.4487453568489593
  0.6948405773023794  0.5585034236633836  0.4139439220474146
  0.4792794136941165  0.4861642265325343  0.6433842605605862
  0.2089794622649485  0.0246593541259904  0.5328108536736154
  0.3876142494899820  0.4029806259608926  0.6872585962724482
  0.0279730652559133  0.9889600976381767  0.5663593998753186
  0.8261626203809957  0.0664744683826755  0.2884050353667876
  0.1614377246714145  0.0631983736483981  0.2893405082379699
  0.4946618235665157  0.0624296009117287  0.2949800652895163
  0.5453515461912387  0.8476804274530260  0.0417203400135694
  0.3075354640502222  0.9296548991704748  0.0165498968012645
  0.2611408025114916  0.5528849484161230  0.1609978974663464
  0.0936177334240176  0.5119067948503014  0.1987513727548388
  0.9378157060231389  0.3507844088212839  0.9387864043934567
  0.0057205434450664  0.4166242955518737  0.8816363148975018
 
  0.00000000E+00  0.00000000E+00  0.00000000E+00
  0.00000000E+00  0.00000000E+00  0.00000000E+00
  0.00000000E+00  0.00000000E+00  0.00000000E+00
  0.00000000E+00  0.00000000E+00  0.00000000E+00
  0.00000000E+00  0.00000000E+00  0.00000000E+00
  0.00000000E+00  0.00000000E+00  0.00000000E+00
  0.00000000E+00  0.00000000E+00  0.00000000E+00
  0.00000000E+00  0.00000000E+00  0.00000000E+00
  0.00000000E+00  0.00000000E+00  0.00000000E+00
  0.00000000E+00  0.00000000E+00  0.00000000E+00
  0.00000000E+00  0.00000000E+00  0.00000000E+00
  0.00000000E+00  0.00000000E+00  0.00000000E+00
  0.00000000E+00  0.00000000E+00  0.00000000E+00
  0.00000000E+00  0.00000000E+00  0.00000000E+00
  0.00000000E+00  0.00000000E+00  0.00000000E+00
  0.00000000E+00  0.00000000E+00  0.00000000E+00
  0.00000000E+00  0.00000000E+00  0.00000000E+00
