Sr1 Nb1 H8                              
   1.00000000000000     
     3.6767874138374808    0.0673327218882024   -0.2576112963800294
    -0.1672923738198090    3.3698386104498423    0.0077255426604523
    -1.2908512068089852   -0.6955636629729297    6.5532499398321402
   H    Nb   H    Sr
     4     1     4     1
Direct
  0.9121054491108540  0.9199617003175757  0.5300242453498973
  0.3839109980814387  0.9908275616158667  0.7403471546111462
  0.4256020411158156  0.5643417747304144  0.9469478964797157
  0.9318912915966443  0.8358013714435242  0.8584581338351115
  0.1199559203635321  0.4794039189371463  0.6958479353955093
  0.7172081032203939  0.6173309588456726  0.8337452782161421
  0.0009468258577387  0.2595700913049395  0.9044862102160360
  0.8006062978405963  0.3440630820960045  0.2243694847198899
  0.4392858252241784  0.4117936856166083  0.5086538711581643
  0.3101962475888123  0.8643828550922505  0.2524227900183734
 
  0.00000000E+00  0.00000000E+00  0.00000000E+00
  0.00000000E+00  0.00000000E+00  0.00000000E+00
  0.00000000E+00  0.00000000E+00  0.00000000E+00
  0.00000000E+00  0.00000000E+00  0.00000000E+00
  0.00000000E+00  0.00000000E+00  0.00000000E+00
  0.00000000E+00  0.00000000E+00  0.00000000E+00
  0.00000000E+00  0.00000000E+00  0.00000000E+00
  0.00000000E+00  0.00000000E+00  0.00000000E+00
  0.00000000E+00  0.00000000E+00  0.00000000E+00
  0.00000000E+00  0.00000000E+00  0.00000000E+00
