Sr2 Nb1 H8
1.0
3.849013 0.000000 0.000000
0.014696 5.580624 -0.000000
0.060715 0.226230 6.462686
H Nb H Sr
5 1 3 2
direct
0.596061 0.523956 0.544665 H
0.668393 0.631659 0.825834 H
0.177500 0.072834 0.853049 H
0.080830 0.114716 0.931063 H
0.139270 0.415364 0.870894 H
0.606221 0.270406 0.863504 Nb
0.787286 0.151880 0.601616 H
0.511709 0.298241 0.169758 H
0.537737 0.896216 0.130803 H
0.013320 0.586926 0.178181 Sr
0.294367 0.900998 0.542339 Sr
