Sr1 Nb1 H6                              
   1.00000000000000     
     3.3897166160715186   -0.3339129595666694    0.8657276057645686
     0.1639963255252794    3.4254411412143813    0.7703923827310732
     2.0837208856739404    1.9384028314350243    6.9671566796477045
   Sr   Nb   H 
     1     1     6
Direct
  0.6180993993505209  0.6526696057696717  0.2773820374960901
  0.6489264824351114  0.6833299906477943  0.7771392835902036
  0.2648570319904152  0.3028971044535044  0.1109644561935523
  0.9238910099556319  0.4907374857105029  0.9507174032441431
  0.4585751419451392  0.9600124121077050  0.9506738374175703
  0.9326798852794779  0.9628596651932660  0.4440620128573716
  0.2710327921837173  0.8413268600486381  0.6039046363556638
  0.8038322568599811  0.3035728760689180  0.6038323328454002
 
  0.00000000E+00  0.00000000E+00  0.00000000E+00
  0.00000000E+00  0.00000000E+00  0.00000000E+00
  0.00000000E+00  0.00000000E+00  0.00000000E+00
  0.00000000E+00  0.00000000E+00  0.00000000E+00
  0.00000000E+00  0.00000000E+00  0.00000000E+00
  0.00000000E+00  0.00000000E+00  0.00000000E+00
  0.00000000E+00  0.00000000E+00  0.00000000E+00
  0.00000000E+00  0.00000000E+00  0.00000000E+00
