Sr2 Nb1 H8                              
   1.00000000000000     
     3.4310344983261540   -0.5302188292318156    0.2336015996013290
     0.7563452401081120    3.3641340111544382    0.3261995532850392
     1.3645652816606839    0.6806997788646566    9.2406634558032010
   H    Sr   H    Sr   H    Nb
     3     1     3     1     2     1
Direct
  0.3774440855554032  0.0452303068497006  0.4239729298528965
  0.3535615381591382  0.0571659261148964  0.2032263705022172
  0.4641361539448272  0.6072349070048589  0.1028323282538665
  0.8649233529105628  0.5243190675688593  0.3026673747435097
  0.5612392709498207  0.2632631478624204  0.7869348540757183
  0.8051941469824735  0.4729750319223124  0.5661024602450262
  0.0182894694778424  0.1871234331975975  0.8878295420100591
  0.1722054082545560  0.8296930987269141  0.6872659243803405
  0.9117658352099834  0.0806843599796398  0.1023645397334043
  0.5707914330985672  0.7139875009826998  0.8871567372543603
  0.5129433054568238  0.1174272197901022  0.9944919389485886
 
  0.00000000E+00  0.00000000E+00  0.00000000E+00
  0.00000000E+00  0.00000000E+00  0.00000000E+00
  0.00000000E+00  0.00000000E+00  0.00000000E+00
  0.00000000E+00  0.00000000E+00  0.00000000E+00
  0.00000000E+00  0.00000000E+00  0.00000000E+00
  0.00000000E+00  0.00000000E+00  0.00000000E+00
  0.00000000E+00  0.00000000E+00  0.00000000E+00
  0.00000000E+00  0.00000000E+00  0.00000000E+00
  0.00000000E+00  0.00000000E+00  0.00000000E+00
  0.00000000E+00  0.00000000E+00  0.00000000E+00
  0.00000000E+00  0.00000000E+00  0.00000000E+00
