Sr2 Nb1 H12                             
   1.00000000000000     
     3.5667765582897397   -0.0296915931296269    0.0591316243405985
     0.0503674210658536    5.7472704086802757   -0.1868092321938075
     1.6594731725379326   -0.1849497815483984    7.5792065775588471
   Sr   Nb   H 
     2     1    12
Direct
  0.3475924722533461  0.2398568237067562  0.6347629630864430
  0.6725771732458398  0.7724063983197343  0.9691866871806813
  0.9516375540416286  0.7656091251911522  0.4311766331740236
  0.7101047698840691  0.2321098212730638  0.0841198392371642
  0.4994247517895072  0.2253883596236198  0.0847702606840885
  0.9202071741978854  0.4731507277883549  0.2906621894745107
  0.1601008838694827  0.4801154622626051  0.2925402891260470
  0.9556925191030616  0.0844415754826819  0.4174690170828978
  0.8639606337890878  0.5378999381450490  0.6035496874802455
  0.3924604859094578  0.7143008016614644  0.5435524510467681
  0.4943239817773942  0.8651177047098568  0.3381051950844554
  0.2125538577081569  0.0176089467102652  0.8886127088919661
  0.2082673382595570  0.5030312700133285  0.8919631332840475
  0.8406473202670260  0.9281663277896309  0.6495041899683064
  0.0622520839044868  0.8427407173224383  0.1978627551983642
 
  0.00000000E+00  0.00000000E+00  0.00000000E+00
  0.00000000E+00  0.00000000E+00  0.00000000E+00
  0.00000000E+00  0.00000000E+00  0.00000000E+00
  0.00000000E+00  0.00000000E+00  0.00000000E+00
  0.00000000E+00  0.00000000E+00  0.00000000E+00
  0.00000000E+00  0.00000000E+00  0.00000000E+00
  0.00000000E+00  0.00000000E+00  0.00000000E+00
  0.00000000E+00  0.00000000E+00  0.00000000E+00
  0.00000000E+00  0.00000000E+00  0.00000000E+00
  0.00000000E+00  0.00000000E+00  0.00000000E+00
  0.00000000E+00  0.00000000E+00  0.00000000E+00
  0.00000000E+00  0.00000000E+00  0.00000000E+00
  0.00000000E+00  0.00000000E+00  0.00000000E+00
  0.00000000E+00  0.00000000E+00  0.00000000E+00
  0.00000000E+00  0.00000000E+00  0.00000000E+00
