Sr1 Nb2 H18
1.0
3.436238 -0.364744 -0.432947
0.621047 6.173698 0.292010
-0.609171 1.154132 7.169271
Sr Nb H
1 2 18
direct
0.114749 0.991517 0.368578 Sr
0.754623 0.621850 0.729100 Nb
0.784451 0.128624 0.770863 Nb
0.271840 0.166117 0.633618 H
0.395210 0.089041 0.908267 H
0.508070 0.231648 0.119408 H
0.543007 0.273946 0.214460 H
0.437616 0.653865 0.909112 H
0.418540 0.513268 0.901568 H
0.537186 0.753465 0.210928 H
0.521517 0.841027 0.119050 H
0.055202 0.486874 0.238954 H
0.103165 0.468129 0.347409 H
0.913748 0.359569 0.919114 H
0.705128 0.912506 0.611028 H
0.697717 0.187311 0.491345 H
0.725890 0.393615 0.595013 H
0.646655 0.686449 0.470243 H
0.919055 0.801289 0.911127 H
0.956803 0.047212 0.034547 H
0.220995 0.641121 0.606040 H
