H14                                     
   1.00000000000000     
     4.2000385354947758   -0.5007188715107785    0.2193657533338950
     0.3164404085281574    5.0008505421268659   -0.0923387948830719
     0.7899532514778714    0.3750205712508619    4.2629672186085568
   H 
    14
Direct
  0.7104954465206957  0.7966871926919289  0.1849570975925575
  0.6879350018554490  0.6746391455643179  0.1027661588246566
  0.7587028005269407  0.5091418612399542  0.6550652082736935
  0.8498525114208092  0.4095709603642568  0.7290536812670660
  0.2321946953644577  0.4526825190482286  0.0760098963282910
  0.0538317905628563  0.4483800211761983  0.1411220394734898
  0.4173040691680319  0.3022969892187808  0.4904425930998669
  0.3856476784428500  0.1629974122122921  0.4498612029620113
  0.2083954212420404  0.9186378584090965  0.0970698603461114
  0.2526935518695030  0.0553802968110430  0.0129366255273477
  0.2670052833634343  0.7040525364513697  0.5500677235682225
  0.3539498942350391  0.7412952882698363  0.6736896063126399
  0.7838900025427011  0.0324120255323861  0.5915369485529097
  0.8911318528851886  0.9444608930103003  0.6601603578711120
 
  0.00000000E+00  0.00000000E+00  0.00000000E+00
  0.00000000E+00  0.00000000E+00  0.00000000E+00
  0.00000000E+00  0.00000000E+00  0.00000000E+00
  0.00000000E+00  0.00000000E+00  0.00000000E+00
  0.00000000E+00  0.00000000E+00  0.00000000E+00
  0.00000000E+00  0.00000000E+00  0.00000000E+00
  0.00000000E+00  0.00000000E+00  0.00000000E+00
  0.00000000E+00  0.00000000E+00  0.00000000E+00
  0.00000000E+00  0.00000000E+00  0.00000000E+00
  0.00000000E+00  0.00000000E+00  0.00000000E+00
  0.00000000E+00  0.00000000E+00  0.00000000E+00
  0.00000000E+00  0.00000000E+00  0.00000000E+00
  0.00000000E+00  0.00000000E+00  0.00000000E+00
  0.00000000E+00  0.00000000E+00  0.00000000E+00
