H25                                     
   1.00000000000000     
     6.2466913832264295   -0.3585979996017427   -0.3756981159981989
    -0.8655242623836970    4.6888646321315424    0.3101920646135637
     0.2650670141325118    0.4031205848485094    4.9607650787747186
   H 
    25
Direct
  0.5949760858979098  0.1541045877313852  0.9816772730279242
  0.6318878791352199  0.2604635930364493  0.0787282587638628
  0.0014832599361692  0.5351839682627120  0.7216069703316977
  0.8806712797055870  0.4942356717720640  0.7463970474589362
  0.2346596792442641  0.8991259183153371  0.9446645292717339
  0.3122446733945837  0.8072176445053709  0.9250596824811266
  0.5391850123322491  0.6040736451784280  0.7605510221338421
  0.6133227994190052  0.7340486540414711  0.6802982048085894
  0.1926027390595487  0.3459346422450378  0.0078198371690129
  0.3031797569634700  0.3151789076434047  0.0239142665429604
  0.9161923825571664  0.9205794961461675  0.8750827124447990
  0.9000383736014127  0.0393740929603971  0.9489150900833615
  0.5200957492996419  0.6681061645003594  0.2343539244126463
  0.6335053015353108  0.6858139233881462  0.1814662664844365
  0.2612094902908624  0.9502670620574017  0.4520390934288115
  0.2656433872879490  0.7515462801848066  0.4529516317000135
  0.2569175778088836  0.5443160299758704  0.4803678973785168
  0.2492621002986755  0.3388302841374289  0.5023271667710264
  0.2518125295740274  0.1416127646307998  0.4860340405948849
  0.9362628131690038  0.9507066715883918  0.4399028763062222
  0.8387440138169725  0.9940054160991179  0.3773811651940207
  0.6553546417803164  0.1735657577126301  0.5406851618264124
  0.5845874996916541  0.2788991950788476  0.5189966294185701
  0.9058051301402504  0.4925833608862681  0.2898588953123361
  0.9792538440599268  0.5548452679217363  0.1691253566542505
 
  0.00000000E+00  0.00000000E+00  0.00000000E+00
  0.00000000E+00  0.00000000E+00  0.00000000E+00
  0.00000000E+00  0.00000000E+00  0.00000000E+00
  0.00000000E+00  0.00000000E+00  0.00000000E+00
  0.00000000E+00  0.00000000E+00  0.00000000E+00
  0.00000000E+00  0.00000000E+00  0.00000000E+00
  0.00000000E+00  0.00000000E+00  0.00000000E+00
  0.00000000E+00  0.00000000E+00  0.00000000E+00
  0.00000000E+00  0.00000000E+00  0.00000000E+00
  0.00000000E+00  0.00000000E+00  0.00000000E+00
  0.00000000E+00  0.00000000E+00  0.00000000E+00
  0.00000000E+00  0.00000000E+00  0.00000000E+00
  0.00000000E+00  0.00000000E+00  0.00000000E+00
  0.00000000E+00  0.00000000E+00  0.00000000E+00
  0.00000000E+00  0.00000000E+00  0.00000000E+00
  0.00000000E+00  0.00000000E+00  0.00000000E+00
  0.00000000E+00  0.00000000E+00  0.00000000E+00
  0.00000000E+00  0.00000000E+00  0.00000000E+00
  0.00000000E+00  0.00000000E+00  0.00000000E+00
  0.00000000E+00  0.00000000E+00  0.00000000E+00
  0.00000000E+00  0.00000000E+00  0.00000000E+00
  0.00000000E+00  0.00000000E+00  0.00000000E+00
  0.00000000E+00  0.00000000E+00  0.00000000E+00
  0.00000000E+00  0.00000000E+00  0.00000000E+00
  0.00000000E+00  0.00000000E+00  0.00000000E+00
