Sr5 Nb1 H19                             
   1.00000000000000     
     6.9257429402259634    0.3293925900839655   -0.4853755482666883
     3.2301470181093999    6.8105539282289973   -0.2404891097228319
    -3.3799006510663094   -1.7745112188142094    5.9958567557952600
   Sr   H    Sr   H    Sr   H    Nb   H    Sr   H 
     1     7     1     1     1     3     1     7     2     1
Direct
  0.5322598882610131  0.4474201272162059  0.5776420613508279
  0.3320834047566082  0.3391444042590968  0.6762121346087004
  0.5510192065199232  0.6325914900207639  0.3711935069105809
  0.5607875947579387  0.4997365262951095  0.9595493187483007
  0.5655748872780484  0.6153740076402949  0.0222939493567493
  0.8217844310078265  0.2282915099924591  0.9083722225903745
  0.8775866133077167  0.4769226818522666  0.9432591672863369
  0.8972499245426855  0.2710149291431821  0.5380135291378201
  0.2408045550995106 -0.0205522082165473  0.9785541640663102
  0.7352797198957934  0.8025439535443794  0.2261753678987515
  0.2381631752055139  0.5067930546255482  0.0173637498833195
  0.2279222214552424  0.3285357682448690  0.2052689242936217
  0.5145252419377211  0.7795522178612260  0.8081375022178173
  0.9145666699988910  0.8404540200913752  0.0703182040084453
  0.9118331037086188  0.9870314741353065  0.3585158298749580
  0.1237368077761218  0.0522456647267968  0.3140612839622617
  0.9335531204246115  0.9088480470537671  0.5778660107757183
  0.6277529130037259  0.0888627578747534  0.3895241096461666
  0.6529196359478251  0.1614626402444418  0.1400100396095953
  0.1843560655285863  0.0197457698496730  0.6289104562254334
  0.0104514441251164  0.7007312208200448  0.7520633757477988
  0.1353477131833080  0.7160022561579436  0.3708052131968878
  0.5971057479168163  0.9694342488836258  0.6867483084540851
  0.9345734879951945  0.4528377158149791  0.3480028573279375
  0.8267534263656378  0.5977607218684486  0.9551267128212237
 
  0.00000000E+00  0.00000000E+00  0.00000000E+00
  0.00000000E+00  0.00000000E+00  0.00000000E+00
  0.00000000E+00  0.00000000E+00  0.00000000E+00
  0.00000000E+00  0.00000000E+00  0.00000000E+00
  0.00000000E+00  0.00000000E+00  0.00000000E+00
  0.00000000E+00  0.00000000E+00  0.00000000E+00
  0.00000000E+00  0.00000000E+00  0.00000000E+00
  0.00000000E+00  0.00000000E+00  0.00000000E+00
  0.00000000E+00  0.00000000E+00  0.00000000E+00
  0.00000000E+00  0.00000000E+00  0.00000000E+00
  0.00000000E+00  0.00000000E+00  0.00000000E+00
  0.00000000E+00  0.00000000E+00  0.00000000E+00
  0.00000000E+00  0.00000000E+00  0.00000000E+00
  0.00000000E+00  0.00000000E+00  0.00000000E+00
  0.00000000E+00  0.00000000E+00  0.00000000E+00
  0.00000000E+00  0.00000000E+00  0.00000000E+00
  0.00000000E+00  0.00000000E+00  0.00000000E+00
  0.00000000E+00  0.00000000E+00  0.00000000E+00
  0.00000000E+00  0.00000000E+00  0.00000000E+00
  0.00000000E+00  0.00000000E+00  0.00000000E+00
  0.00000000E+00  0.00000000E+00  0.00000000E+00
  0.00000000E+00  0.00000000E+00  0.00000000E+00
  0.00000000E+00  0.00000000E+00  0.00000000E+00
  0.00000000E+00  0.00000000E+00  0.00000000E+00
  0.00000000E+00  0.00000000E+00  0.00000000E+00
