Sr1 Nb1 H8                              
   1.00000000000000     
     3.1456305752886831   -0.4504418227567947   -0.3134120525405372
     0.8655086794915688    5.5707597044973074   -0.1759911146862236
     0.8982475536617285    1.4564828616381669    4.7850126309088097
   H    Nb   H    Sr
     2     1     6     1
Direct
  0.8826825293308491  0.3118895887746972  0.4176555705882177
  0.8768287542413108  0.2090414342100361  0.5574819087396169
  0.0275073094573499  0.5851106585275615  0.8863109496884473
  0.5074934664138764  0.4505317351414539  0.1048009184552700
  0.0204387453856077  0.6886684911417004  0.1895476520213299
  0.0372310840594686  0.2378562638285139  0.9562491143981486
  0.0252943575510619  0.8661794383290462  0.6027322929840596
  0.5347625285771832  0.5450583531439844  0.6674400663460270
  0.5220623798400509  0.7976431008402658  0.8717912358275908
  0.5258778451432370 -0.0150240639372529  0.2534042909513051
 
  0.00000000E+00  0.00000000E+00  0.00000000E+00
  0.00000000E+00  0.00000000E+00  0.00000000E+00
  0.00000000E+00  0.00000000E+00  0.00000000E+00
  0.00000000E+00  0.00000000E+00  0.00000000E+00
  0.00000000E+00  0.00000000E+00  0.00000000E+00
  0.00000000E+00  0.00000000E+00  0.00000000E+00
  0.00000000E+00  0.00000000E+00  0.00000000E+00
  0.00000000E+00  0.00000000E+00  0.00000000E+00
  0.00000000E+00  0.00000000E+00  0.00000000E+00
  0.00000000E+00  0.00000000E+00  0.00000000E+00
