H19                                     
   1.00000000000000     
     2.8523223269761999   -0.1719735498782767   -0.0277978427395286
     0.2307170248163399    6.3800378451458046   -0.4237412931544394
     0.1680572883242692    0.3328777123507955    5.9234584454376034
   H 
    19
Direct
  0.4969822227952725  0.2032162147794076  0.8864458582652223
  0.6932909575410323  0.1311617357292659  0.9061821801204598
  0.2976843349473927  0.9381198129018345  0.1914410510229642
  0.9653478468222380  0.9375390262257108  0.1884178707798200
  0.6320474268100202  0.3062803703769084  0.4951452771167308
  0.5659131278349590  0.4048049491399725  0.5526670556554558
  0.9958123938670811  0.3242383800956923  0.1840998723054261
  0.0296129684599989  0.4286783782962315  0.8060316901894269
  0.1721291375902090  0.5262528500946647  0.8222616876896734
  0.6935246864262598  0.6267755084478931  0.1388488658627116
  0.6300627785927488  0.9426201104053631  0.2032808886052646
  0.5207411351208253  0.5444837354893506  0.1026849910917384
  0.1806651289401969  0.0139346226767340  0.6084165545431058
  0.0286517562849583  0.0743030848485851  0.5331129781304718
  0.5550940501789071  0.7966928208923206  0.7282676236988290
  0.6467006355815862  0.7951037729955079  0.8451192834347381
  0.1725225011609274  0.6266597330249881  0.4205812127834647
  0.1946972625073962  0.2680569678174924  0.2336499592479325
  0.0389506485379872  0.7108839257620776  0.4782840994565933
 
  0.00000000E+00  0.00000000E+00  0.00000000E+00
  0.00000000E+00  0.00000000E+00  0.00000000E+00
  0.00000000E+00  0.00000000E+00  0.00000000E+00
  0.00000000E+00  0.00000000E+00  0.00000000E+00
  0.00000000E+00  0.00000000E+00  0.00000000E+00
  0.00000000E+00  0.00000000E+00  0.00000000E+00
  0.00000000E+00  0.00000000E+00  0.00000000E+00
  0.00000000E+00  0.00000000E+00  0.00000000E+00
  0.00000000E+00  0.00000000E+00  0.00000000E+00
  0.00000000E+00  0.00000000E+00  0.00000000E+00
  0.00000000E+00  0.00000000E+00  0.00000000E+00
  0.00000000E+00  0.00000000E+00  0.00000000E+00
  0.00000000E+00  0.00000000E+00  0.00000000E+00
  0.00000000E+00  0.00000000E+00  0.00000000E+00
  0.00000000E+00  0.00000000E+00  0.00000000E+00
  0.00000000E+00  0.00000000E+00  0.00000000E+00
  0.00000000E+00  0.00000000E+00  0.00000000E+00
  0.00000000E+00  0.00000000E+00  0.00000000E+00
  0.00000000E+00  0.00000000E+00  0.00000000E+00
