Sr1 Nb3 H16
1.0
3.308587 0.039688 0.310679
0.048696 5.373138 -0.887486
-0.913126 -2.680818 9.061226
Sr Nb H
1 3 16
direct
0.011875 0.468433 0.693578 Sr
0.501047 0.832562 0.491739 Nb
0.886833 0.464459 0.195693 Nb
0.502924 0.103060 0.896704 Nb
0.029156 0.189758 0.275335 H
0.828155 0.257826 0.326300 H
0.013384 0.655042 0.513167 H
0.514702 0.785270 0.686480 H
0.005122 0.013695 0.508706 H
0.516979 0.152011 0.702263 H
0.496993 0.167462 0.489359 H
0.406024 0.482357 0.313837 H
0.395318 0.444722 0.078299 H
0.824978 0.644393 0.053780 H
0.694591 0.104907 0.083062 H
0.990151 0.743018 0.119365 H
0.504043 0.766955 0.897236 H
0.012915 0.924377 0.883893 H
0.016963 0.277290 0.871233 H
0.696160 0.823234 0.304564 H
