pymatgen with grid density = 1912 / number of atoms
0
Gamma
5 5 3
