Sr1 Nb1 H14                             
   1.00000000000000     
     3.5061820183247794   -0.3415333709014738    0.0504557835861049
     0.2829976428903561    3.3061013136324409   -0.0390329563000508
     1.4312322291484119    0.3875505451639571   10.5190112014101267
   Sr   Nb   H 
     1     1    14
Direct
  0.6859385580839076  0.4201067195151901  0.5303323231162874
  0.2830223988163160  0.9765842718322341  0.2590598906214072
  0.4387361148719457  0.2384260687209120  0.7709410405504297
  0.6121529462608823  0.3553429758771797  0.7839002824930823
  0.9617429048045186  0.9531026418780362  0.9177028590825387
  0.9604663379962092  0.6228096161370698  0.9198980545290095
  0.9605972344259467  0.2812163264105683  0.9211621006958447
  0.3868218532732957  0.0915014238058112  0.0532268444487478
  0.4190974073060825  0.8579624504229123  0.0544399309553252
  0.9044582396934063  0.7469571043562057  0.1927779256320269
  0.9124242936301585  0.2239281188631347  0.1916184754061677
  0.8149927185373224  0.9516298697306160  0.3556658643972043
  0.2737504023293681  0.9316528301228126  0.4296110728026279
  0.2396607257287468  0.4346509817789941  0.3506345012047135
  0.4470837902357048  0.4479085944191130  0.1715878334323874
  0.1341690740061990  0.8991730061292227  0.6290060006321935
 
  0.00000000E+00  0.00000000E+00  0.00000000E+00
  0.00000000E+00  0.00000000E+00  0.00000000E+00
  0.00000000E+00  0.00000000E+00  0.00000000E+00
  0.00000000E+00  0.00000000E+00  0.00000000E+00
  0.00000000E+00  0.00000000E+00  0.00000000E+00
  0.00000000E+00  0.00000000E+00  0.00000000E+00
  0.00000000E+00  0.00000000E+00  0.00000000E+00
  0.00000000E+00  0.00000000E+00  0.00000000E+00
  0.00000000E+00  0.00000000E+00  0.00000000E+00
  0.00000000E+00  0.00000000E+00  0.00000000E+00
  0.00000000E+00  0.00000000E+00  0.00000000E+00
  0.00000000E+00  0.00000000E+00  0.00000000E+00
  0.00000000E+00  0.00000000E+00  0.00000000E+00
  0.00000000E+00  0.00000000E+00  0.00000000E+00
  0.00000000E+00  0.00000000E+00  0.00000000E+00
  0.00000000E+00  0.00000000E+00  0.00000000E+00
