Sr1 Nb1 H14
1.0
3.390464 -0.307224 0.055301
0.303501 3.281714 -0.037918
1.408725 0.394368 10.126907
Sr Nb H
1 1 14
direct
0.685400 0.421623 0.535618 Sr
0.290393 0.959928 0.254255 Nb
0.434404 0.233372 0.772437 H
0.613301 0.354080 0.785845 H
0.962589 0.952703 0.916542 H
0.960182 0.622055 0.920127 H
0.960070 0.282213 0.921946 H
0.385214 0.092364 0.051036 H
0.424451 0.855676 0.052880 H
0.891337 0.735134 0.186724 H
0.907790 0.226654 0.187867 H
0.808281 0.950673 0.357889 H
0.272213 0.934925 0.436536 H
0.244584 0.444599 0.353717 H
0.460985 0.466914 0.164018 H
0.133921 0.900040 0.634128 H
