pymatgen with grid density = 2188 / number of atoms
0
Monkhorst
6 4 4
