Sr1 Nb5 H18                             
   1.00000000000000     
     5.6282040143256058    0.7708890190648573    0.5259188378344724
     2.7134035735851025    5.8578093288352067   -0.1961940486641194
     1.9350798897992785    0.1872021110433381    6.0250746739379739
   H    Nb   H    Nb   H    Nb   H    Nb   H    Nb   H    Sr   H 
     6     1     3     1     2     1     1     1     1     1     4     1     1
Direct
  0.6491071671992727  0.4721441772687758  0.5173786848563656
  0.9472118677185157  0.0705347444450054  0.5358249560091279
  0.7205704276660483  0.2270215221473900  0.2650493134486959
  0.6726958144410531  0.3627630944536415  0.8879929815365342
  0.1641971398618038  0.0631421453879169  0.0108174655597036
  0.1735616544304395  0.4525272479698396  0.3761631458790365
  0.0207491336562294  0.2656831776466665  0.2839568423043574
  0.8242265353128138  0.6474948927604866  0.2986037333765493
  0.1557594217821711  0.1818852362236539  0.5408262515438371
  0.4540982328418610  0.9671288948365409  0.1943770764978903
  0.9486883763482826  0.7909604520497185  0.4431694290977266
  0.3307104962778039  0.5985294990421595  0.4370388890816405
  0.5612895326055982  0.0312323104684135  0.4695674292668297
  0.4065726554370271  0.8320486159667492  0.4925521933758477
  0.8557294449528619  0.5885070740927375  0.6793232734173618
  0.8000110777795136  0.0250423523065874  0.0129797100485437
  0.3807537096599631  0.2740916028791754  0.0915134879972632
  0.5429856686357152  0.7167028328523815  0.9748301362898388
  0.2773687016663576  0.7673956546293855  0.8138093780341936
  0.8741769621379963  0.4407656499492221  0.0467225483641186
  0.8936585221409308  0.7106056070870803  0.9564742245942442
  0.1851158311057456  0.6976034692649894  0.1249688721543111
  0.3244153754041293  0.3515524197987818  0.7345349059268225
  0.6553522509378600  0.9492463264727217  0.8052400713391697
 
  0.00000000E+00  0.00000000E+00  0.00000000E+00
  0.00000000E+00  0.00000000E+00  0.00000000E+00
  0.00000000E+00  0.00000000E+00  0.00000000E+00
  0.00000000E+00  0.00000000E+00  0.00000000E+00
  0.00000000E+00  0.00000000E+00  0.00000000E+00
  0.00000000E+00  0.00000000E+00  0.00000000E+00
  0.00000000E+00  0.00000000E+00  0.00000000E+00
  0.00000000E+00  0.00000000E+00  0.00000000E+00
  0.00000000E+00  0.00000000E+00  0.00000000E+00
  0.00000000E+00  0.00000000E+00  0.00000000E+00
  0.00000000E+00  0.00000000E+00  0.00000000E+00
  0.00000000E+00  0.00000000E+00  0.00000000E+00
  0.00000000E+00  0.00000000E+00  0.00000000E+00
  0.00000000E+00  0.00000000E+00  0.00000000E+00
  0.00000000E+00  0.00000000E+00  0.00000000E+00
  0.00000000E+00  0.00000000E+00  0.00000000E+00
  0.00000000E+00  0.00000000E+00  0.00000000E+00
  0.00000000E+00  0.00000000E+00  0.00000000E+00
  0.00000000E+00  0.00000000E+00  0.00000000E+00
  0.00000000E+00  0.00000000E+00  0.00000000E+00
  0.00000000E+00  0.00000000E+00  0.00000000E+00
  0.00000000E+00  0.00000000E+00  0.00000000E+00
  0.00000000E+00  0.00000000E+00  0.00000000E+00
  0.00000000E+00  0.00000000E+00  0.00000000E+00
