H25                                     
   1.00000000000000     
     3.9289258321880300   -0.0257545679110460    0.0514972778533178
    -0.1277023989350360    5.4653288060292589    0.1059663545149703
    -0.3433370929675040   -0.2677676476211138    6.8092487657936758
   H 
    25
Direct
  0.1961444852546782  0.6134597386039655  0.2522432486445723
  0.2829103130362324  0.7268242975253090  0.2157840105462826
  0.6600627996356283  0.9300873126472318  0.0585604389706050
  0.7559724732968648  0.8565703146818771  0.1325954558899109
  0.2206333697461568  0.1431888909102113  0.2784537761354218
  0.2060260166686103  0.1137504134910374  0.1721968171008595
  0.3060955297582584  0.4264775807159665  0.5222381956254956
  0.0515663066620004  0.7818013492442798  0.8216019573675943
  0.0563471495630063  0.6839943649219056  0.8944364653191600
  0.1745713061075441  0.2308829980894438  0.8838009190698973
  0.2294785287986069  0.3447733942767137  0.9388056513339552
  0.1122516783848134  0.9152901614593548  0.5991993480240997
  0.7872654922757368  0.3733900830599856  0.1146478877203393
  0.6514431484416607  0.4663898517577588  0.1189062135845938
  0.5201492499769590  0.6370736879233339  0.8135918916571765
  0.5890039939892033  0.5389044757263060  0.7517705965322311
  0.3213705740004751  0.9298440979836672  0.5921793631798765
  0.6135938315239650  0.9380758204763150  0.6007653525440921
  0.6976255753048065  0.1065269870710485  0.7736818381551912
  0.6826269658009585  0.2134704052665971  0.8417475171828436
  0.7285821436768436  0.1358088630121876  0.4373868744894954
  0.7259429898900247  0.2170598100260250  0.3506823843577634
  0.7669839827269129  0.5614782224011439  0.4268585289130785
  0.7453006498490383  0.6888266274785882  0.4667964524488852
  0.1518164456309984  0.3598302512497307  0.5556768152065825
 
  0.00000000E+00  0.00000000E+00  0.00000000E+00
  0.00000000E+00  0.00000000E+00  0.00000000E+00
  0.00000000E+00  0.00000000E+00  0.00000000E+00
  0.00000000E+00  0.00000000E+00  0.00000000E+00
  0.00000000E+00  0.00000000E+00  0.00000000E+00
  0.00000000E+00  0.00000000E+00  0.00000000E+00
  0.00000000E+00  0.00000000E+00  0.00000000E+00
  0.00000000E+00  0.00000000E+00  0.00000000E+00
  0.00000000E+00  0.00000000E+00  0.00000000E+00
  0.00000000E+00  0.00000000E+00  0.00000000E+00
  0.00000000E+00  0.00000000E+00  0.00000000E+00
  0.00000000E+00  0.00000000E+00  0.00000000E+00
  0.00000000E+00  0.00000000E+00  0.00000000E+00
  0.00000000E+00  0.00000000E+00  0.00000000E+00
  0.00000000E+00  0.00000000E+00  0.00000000E+00
  0.00000000E+00  0.00000000E+00  0.00000000E+00
  0.00000000E+00  0.00000000E+00  0.00000000E+00
  0.00000000E+00  0.00000000E+00  0.00000000E+00
  0.00000000E+00  0.00000000E+00  0.00000000E+00
  0.00000000E+00  0.00000000E+00  0.00000000E+00
  0.00000000E+00  0.00000000E+00  0.00000000E+00
  0.00000000E+00  0.00000000E+00  0.00000000E+00
  0.00000000E+00  0.00000000E+00  0.00000000E+00
  0.00000000E+00  0.00000000E+00  0.00000000E+00
  0.00000000E+00  0.00000000E+00  0.00000000E+00
