H22                                     
   1.00000000000000     
     5.0104797915370654    0.1655894206728605   -0.1667228209890715
    -0.1191083274764317    5.7612387803372345   -0.4891241180629626
    -0.8388343779041738   -1.9064537854785060    7.6079860814005213
   H 
    22
Direct
  0.0364149447649115  0.0825166721473151  0.7279450447346389
  0.6241395552051685  0.3237375398390676  0.7513469503595300
  0.5095078412530361  0.2458901243148756  0.7566332237906868
  0.1319862599130430  0.0143978631477849  0.7754081691451540
  0.1403035130489820  0.6011568023512704  0.5101230679106906
  0.2089744434779761  0.5750453043614366  0.4279692346494813
  0.0331355653179497  0.6151755175857496  0.8209976005902648
  0.5799896626587383  0.7857054724356478  0.8152042499935304
  0.5869600770517767  0.7880193705252145  0.7215203541286264
  0.1623401772088024  0.5488843471044034  0.8246775014788025
  0.7358826819274747  0.8131833204186437  0.4423001483525855
  0.6197752092615330  0.8969449867585132  0.4507561187947373
  0.2423026192452908  0.9139406415781198  0.2206342670955347
  0.8314808684486718  0.6456424894773467  0.0844546077269719
  0.7013320988672381  0.7005800184712265  0.1106513158723042
  0.2315998646045830  0.4004495092059281  0.1062790787758642
  0.3818224689987050  0.4179302694609329  0.1295898411524817
  0.7432098167612521  0.3429171347735684  0.4155682890121843
  0.6117686617314040  0.3394180333211413  0.4493514181827776
  0.7739973111428370  0.1806850818889457  0.0362297862994535
  0.8182162785323150  0.1388221018410331  0.1161932377499501
  0.2937800805783020  0.0085113989918333  0.1858674942037534
 
  0.00000000E+00  0.00000000E+00  0.00000000E+00
  0.00000000E+00  0.00000000E+00  0.00000000E+00
  0.00000000E+00  0.00000000E+00  0.00000000E+00
  0.00000000E+00  0.00000000E+00  0.00000000E+00
  0.00000000E+00  0.00000000E+00  0.00000000E+00
  0.00000000E+00  0.00000000E+00  0.00000000E+00
  0.00000000E+00  0.00000000E+00  0.00000000E+00
  0.00000000E+00  0.00000000E+00  0.00000000E+00
  0.00000000E+00  0.00000000E+00  0.00000000E+00
  0.00000000E+00  0.00000000E+00  0.00000000E+00
  0.00000000E+00  0.00000000E+00  0.00000000E+00
  0.00000000E+00  0.00000000E+00  0.00000000E+00
  0.00000000E+00  0.00000000E+00  0.00000000E+00
  0.00000000E+00  0.00000000E+00  0.00000000E+00
  0.00000000E+00  0.00000000E+00  0.00000000E+00
  0.00000000E+00  0.00000000E+00  0.00000000E+00
  0.00000000E+00  0.00000000E+00  0.00000000E+00
  0.00000000E+00  0.00000000E+00  0.00000000E+00
  0.00000000E+00  0.00000000E+00  0.00000000E+00
  0.00000000E+00  0.00000000E+00  0.00000000E+00
  0.00000000E+00  0.00000000E+00  0.00000000E+00
  0.00000000E+00  0.00000000E+00  0.00000000E+00
