Sr2 Nb3 H18
1.0
3.821159 -0.064548 -0.095501
0.146885 5.790222 0.167928
0.252677 1.076358 8.250119
Sr Nb H
2 3 18
direct
0.176855 0.708142 0.481295 Sr
0.178514 0.352289 0.991971 Sr
0.671028 0.257216 0.331468 Nb
0.648531 0.103196 0.702242 Nb
0.670411 0.822181 0.110769 Nb
0.258919 0.641089 0.771443 H
0.058696 0.638048 0.771239 H
0.904927 0.978282 0.929106 H
0.682247 0.660767 0.937411 H
0.702128 0.379901 0.555832 H
0.668276 0.480906 0.135768 H
0.173391 0.326148 0.298765 H
0.679990 0.149149 0.126936 H
0.170781 0.755093 0.150446 H
0.397673 0.112152 0.505204 H
0.252448 0.278447 0.708074 H
0.424346 0.977438 0.928096 H
0.227672 0.966429 0.697615 H
0.702783 0.352570 0.814275 H
0.900118 0.080246 0.507898 H
0.656884 0.927778 0.329863 H
0.688181 0.793447 0.662171 H
0.675410 0.592059 0.337267 H
