Sr2 Nb1 H10
1.0
5.806779 0.087173 -0.463908
-0.048334 5.878987 -0.813038
-2.633934 -2.505999 4.732414
Sr Nb H
2 1 10
direct
0.274138 0.616413 0.892991 Sr
0.783844 0.130291 0.891246 Sr
0.525778 0.379564 0.401425 Nb
0.067603 0.900596 0.482327 H
0.013623 0.877800 0.324311 H
0.230749 0.478985 0.193168 H
0.297177 0.076821 0.953785 H
0.819066 0.290518 0.370377 H
0.240676 0.234871 0.400410 H
0.698178 0.655755 0.411361 H
0.574801 0.066116 0.389401 H
0.501103 0.696984 0.687750 H
0.817945 0.517423 0.829951 H
