H16                                     
   1.00000000000000     
     2.8982934509907330    0.0289137604207852    0.1458093211550306
     1.4043252288908175    5.4030919000230826    0.0602027252638848
     0.5895216600069452    0.5416349461490435    9.1391973328529357
   H 
    16
Direct
  0.4139378837066792  0.3520113534601820  0.3779268065892430
  0.2482722466878641  0.3901138201870722  0.3185042852764768
  0.9677243852946870  0.1416244418252335  0.5634131222247094
  0.5094064774595732  0.8080399414416347  0.4088045298334496
  0.6773738311065994  0.8539542869951599  0.3520079164643335
  0.9311757140451136  0.5284292819989403  0.6487923242294935
  0.0428919229793615  0.6339889594907328  0.6260591149614272
  0.4850320827902497  0.2620625026898544  0.8396555353206222
  0.8290298989354318  0.0745241593038914  0.6188425035860754
  0.1428011880935130  0.8705326090935323  0.8697992784949777
  0.3605085039533061  0.7711598711801710  0.8460503200709989
  0.0532000829665637  0.0157947305934732  0.1050827843097508
  0.1153024373624413  0.0847932685299195  0.1634925258602341
  0.8457055618051862  0.5397220517766964  0.0678762043016632
  0.7174560175231134  0.6221273374825917  0.1279089394999275
  0.5008597652903066  0.3028553839509137  0.9141748089766379
 
  0.00000000E+00  0.00000000E+00  0.00000000E+00
  0.00000000E+00  0.00000000E+00  0.00000000E+00
  0.00000000E+00  0.00000000E+00  0.00000000E+00
  0.00000000E+00  0.00000000E+00  0.00000000E+00
  0.00000000E+00  0.00000000E+00  0.00000000E+00
  0.00000000E+00  0.00000000E+00  0.00000000E+00
  0.00000000E+00  0.00000000E+00  0.00000000E+00
  0.00000000E+00  0.00000000E+00  0.00000000E+00
  0.00000000E+00  0.00000000E+00  0.00000000E+00
  0.00000000E+00  0.00000000E+00  0.00000000E+00
  0.00000000E+00  0.00000000E+00  0.00000000E+00
  0.00000000E+00  0.00000000E+00  0.00000000E+00
  0.00000000E+00  0.00000000E+00  0.00000000E+00
  0.00000000E+00  0.00000000E+00  0.00000000E+00
  0.00000000E+00  0.00000000E+00  0.00000000E+00
  0.00000000E+00  0.00000000E+00  0.00000000E+00
