H19                                     
   1.00000000000000     
     2.7923465017945919   -0.1133262628254019    0.1314108189266168
    -0.7917472268569782    5.3263432231761501   -0.1684497628686800
     0.0607525930098956   -1.2650993837145856    7.8803771289663205
   H 
    19
Direct
  0.1503861560755133  0.8070392450231686  0.4902082615107457
  0.3446507506900175  0.8896898383525287  0.5462388391630304
  0.1676996026176603  0.2544915012818500  0.7704743637707979
  0.2656063216437816  0.1330059458697107  0.7608756797851083
  0.9579734299782933  0.0403412770235564  0.2911159265743155
  0.7339557770957855  0.0564576876248654  0.3449651429636938
  0.9633122633507434  0.0056901639592836  0.0388627394284382
  0.1668087857609158  0.9921358989889791  0.9753393150678159
  0.3075658325327351  0.6882485040636138  0.0973765853725816
  0.4046575293434800  0.7536450532753293  0.1818049772997896
  0.5025572803140442  0.4483321232585247  0.3244042835893548
  0.1690029421621687  0.4500385377935651  0.3183945343875364
  0.7865395149125590  0.3777237249908451  0.0479164602102963
  0.8446749892972242  0.4667074188695143  0.3132272049640153
  0.6797565012260397  0.3675983719477628  0.9633819183989364
  0.4811756040362204  0.7078682994157849  0.7432598281265199
  0.6112939435877001  0.7310516710706958  0.8250477754877820
  0.7445371940211540  0.4242003994324940  0.5808736821215060
  0.9434235813539698  0.3478183377579290  0.5701634817777367
 
  0.00000000E+00  0.00000000E+00  0.00000000E+00
  0.00000000E+00  0.00000000E+00  0.00000000E+00
  0.00000000E+00  0.00000000E+00  0.00000000E+00
  0.00000000E+00  0.00000000E+00  0.00000000E+00
  0.00000000E+00  0.00000000E+00  0.00000000E+00
  0.00000000E+00  0.00000000E+00  0.00000000E+00
  0.00000000E+00  0.00000000E+00  0.00000000E+00
  0.00000000E+00  0.00000000E+00  0.00000000E+00
  0.00000000E+00  0.00000000E+00  0.00000000E+00
  0.00000000E+00  0.00000000E+00  0.00000000E+00
  0.00000000E+00  0.00000000E+00  0.00000000E+00
  0.00000000E+00  0.00000000E+00  0.00000000E+00
  0.00000000E+00  0.00000000E+00  0.00000000E+00
  0.00000000E+00  0.00000000E+00  0.00000000E+00
  0.00000000E+00  0.00000000E+00  0.00000000E+00
  0.00000000E+00  0.00000000E+00  0.00000000E+00
  0.00000000E+00  0.00000000E+00  0.00000000E+00
  0.00000000E+00  0.00000000E+00  0.00000000E+00
  0.00000000E+00  0.00000000E+00  0.00000000E+00
