H20                                     
   1.00000000000000     
     4.8850107057886589    0.0571324430090242    0.1077215608886342
     0.7878426785228637    6.1810297999401094   -0.2666242579397566
     1.1406455811465033    1.4616741499874493    6.4573487080515513
   H 
    20
Direct
  0.3904482734415297  0.8764626766729541  0.9122235201562937
  0.3502187638566325  0.9805048419846565  0.8424173127729357
  0.6161895281958509  0.1021201032412128  0.4481593579410103
  0.6516306776560296  0.2041758376761481  0.4764925353445851
  0.1330735656641280  0.1573506496669507  0.2563559223583951
  0.8686606235253458  0.1854543115140691  0.9613467685929936
  0.2621111278037205  0.1400946749601517  0.1780443926818151
  0.8984453630026231  0.8211425919535270  0.2064183266197490
  0.8186689254874553  0.1086888529799944  0.9062309587796846
  0.8911781606329947  0.7234300909986457  0.2916654042409495
  0.5078989236951166  0.5666077893536541  0.2018643887144422
  0.4184678812353970  0.5098882535880537  0.1538162529010620
  0.3769108901867966  0.7799419381985856  0.5542436681011853
  0.8760647693436894  0.6510080315340648  0.8821404251191950
  0.8921751044327972  0.7113230186719508  0.7731941857838696
  0.3043280323108605  0.7844306536530727  0.4647197137647925
  0.3415841660683860  0.4444811140940872  0.7842475991520118
  0.4613656376366185  0.3779365384489163  0.8297518111811745
  0.9723075320815667  0.4017752264439099  0.5726596956198237
  0.1084700537424599  0.3849058043653904  0.5011427601740350
 
  0.00000000E+00  0.00000000E+00  0.00000000E+00
  0.00000000E+00  0.00000000E+00  0.00000000E+00
  0.00000000E+00  0.00000000E+00  0.00000000E+00
  0.00000000E+00  0.00000000E+00  0.00000000E+00
  0.00000000E+00  0.00000000E+00  0.00000000E+00
  0.00000000E+00  0.00000000E+00  0.00000000E+00
  0.00000000E+00  0.00000000E+00  0.00000000E+00
  0.00000000E+00  0.00000000E+00  0.00000000E+00
  0.00000000E+00  0.00000000E+00  0.00000000E+00
  0.00000000E+00  0.00000000E+00  0.00000000E+00
  0.00000000E+00  0.00000000E+00  0.00000000E+00
  0.00000000E+00  0.00000000E+00  0.00000000E+00
  0.00000000E+00  0.00000000E+00  0.00000000E+00
  0.00000000E+00  0.00000000E+00  0.00000000E+00
  0.00000000E+00  0.00000000E+00  0.00000000E+00
  0.00000000E+00  0.00000000E+00  0.00000000E+00
  0.00000000E+00  0.00000000E+00  0.00000000E+00
  0.00000000E+00  0.00000000E+00  0.00000000E+00
  0.00000000E+00  0.00000000E+00  0.00000000E+00
  0.00000000E+00  0.00000000E+00  0.00000000E+00
