Sr1 Nb1 H7                              
   1.00000000000000     
     3.2435783136534586    0.4724631540991086    0.1794668502811415
    -0.4847490004909553    3.2997097460941576    0.0619713683565624
    -0.2044762077447264   -1.8688866259897376    6.7649583537305995
   H    Sr   H    Nb   H 
     1     1     3     1     3
Direct
  0.8508410416976004  0.8071043960361068  0.8106506523861409
  0.3425801563967421  0.2668835895485067  0.7295475149495350
  0.8304112830939577  0.1183738910557632  0.4340364181019013
  0.8355199051901487  0.6808391558623015  0.5548067263512184
  0.3220326909011885  0.4604370847360349  0.1255433378926684
  0.8253560917396356  0.5395822758565129  0.2788812270343303
  0.8296367606987968  0.3976059602511161  0.0044660591974771
  0.3274456448671206  0.6194747583182277  0.4348242983335132
  0.8105874254148273  0.9684708883354320  0.1373047657532015
 
  0.00000000E+00  0.00000000E+00  0.00000000E+00
  0.00000000E+00  0.00000000E+00  0.00000000E+00
  0.00000000E+00  0.00000000E+00  0.00000000E+00
  0.00000000E+00  0.00000000E+00  0.00000000E+00
  0.00000000E+00  0.00000000E+00  0.00000000E+00
  0.00000000E+00  0.00000000E+00  0.00000000E+00
  0.00000000E+00  0.00000000E+00  0.00000000E+00
  0.00000000E+00  0.00000000E+00  0.00000000E+00
  0.00000000E+00  0.00000000E+00  0.00000000E+00
