H16                                     
   1.00000000000000     
     4.1251015751291691   -0.0000000000000000    0.0000000000000000
     0.0000000000000000    5.0793011696929540    0.0000000011722770
    -0.0000000000000000   -2.5396515828048498    4.3988042674624754
   H 
    16
Direct
  0.2500000000000000  0.6228429904665802  0.7432236652452918
  0.2500000000000000  0.7138882759726217  0.9123838101404103
  0.2500000000000000  0.1203806747787015  0.3771570095334055
  0.2500000000000000  0.1984955341677986  0.2861127240273844
  0.2500000000000000  0.2567763347547182  0.8796193252213026
  0.2500000000000000  0.0876171898595843  0.8015054658322073
  0.6596294611639687  0.3333330000000032  0.6666669999999968
  0.8403705388360313  0.3333330000000032  0.6666669999999968
  0.7500000000000000  0.3771570095334197  0.2567763347547081
  0.7500000000000000  0.2861117240273783  0.0876161898595897
  0.7500000000000000  0.8796193252212985  0.6228429904665944
  0.7500000000000000  0.8015044658322014  0.7138872759726156
  0.7500000000000000  0.7432236652452817  0.1203806747786974
  0.7500000000000000  0.9123828101404157  0.1984945341677926
  0.3403705388360312  0.6666669999999968  0.3333330000000032
  0.1596294611639688  0.6666669999999968  0.3333330000000032
 
  0.00000000E+00  0.00000000E+00  0.00000000E+00
  0.00000000E+00  0.00000000E+00  0.00000000E+00
  0.00000000E+00  0.00000000E+00  0.00000000E+00
  0.00000000E+00  0.00000000E+00  0.00000000E+00
  0.00000000E+00  0.00000000E+00  0.00000000E+00
  0.00000000E+00  0.00000000E+00  0.00000000E+00
  0.00000000E+00  0.00000000E+00  0.00000000E+00
  0.00000000E+00  0.00000000E+00  0.00000000E+00
  0.00000000E+00  0.00000000E+00  0.00000000E+00
  0.00000000E+00  0.00000000E+00  0.00000000E+00
  0.00000000E+00  0.00000000E+00  0.00000000E+00
  0.00000000E+00  0.00000000E+00  0.00000000E+00
  0.00000000E+00  0.00000000E+00  0.00000000E+00
  0.00000000E+00  0.00000000E+00  0.00000000E+00
  0.00000000E+00  0.00000000E+00  0.00000000E+00
  0.00000000E+00  0.00000000E+00  0.00000000E+00
