H20
1.0
4.323047 0.350306 -0.417252
0.730508 5.073031 0.482895
-0.366693 0.669385 5.571359
H
20
direct
0.066933 0.375328 0.740669 H
0.095541 0.257286 0.681945 H
0.325832 0.400010 0.115954 H
0.167668 0.387175 0.144763 H
0.072605 0.808627 0.675625 H
0.955254 0.797792 0.758026 H
0.364871 0.966118 0.484538 H
0.478404 0.034093 0.545106 H
0.959447 0.686578 0.294236 H
0.809329 0.248960 0.370924 H
0.847561 0.167037 0.279570 H
0.419368 0.480938 0.528962 H
0.549111 0.550102 0.503954 H
0.670945 0.622136 -0.014261 H
0.806849 0.766295 0.316137 H
0.622565 0.560674 0.881482 H
0.596122 0.102273 0.920679 H
0.748844 0.128253 0.889597 H
0.266864 0.967865 0.120932 H
0.277200 0.852063 0.059256 H
