Sr2 Nb1 H9                              
   1.00000000000000     
     3.1862296975737467   -0.0062450544572829    0.7896505610790798
    -0.0748441729965650    6.3289005106960685    0.0475501036864119
     1.5822708463444244    0.4844556329051868    6.9394148782673772
   H    Sr   Nb
     9     2     1
Direct
  0.5161034547019027  0.8265836977887607  0.6999380356534042
  0.7772924055256075  0.7688298353916901  0.9423695342011045
  0.4016745408578489  0.1159839019523653  0.4470790207830246
  0.0408124389830891  0.9117712308748256  0.1897690287999874
  0.8589734559172637  0.6531481236819819  0.3658239087786610
  0.6401209848898640  0.8267019823343559  0.5770439441418113
  0.5418224774967936  0.4883850604532491  0.1763005088731371
  0.4775020668675420  0.2463853084911851  0.7471753565523497
  0.1673843981570884  0.1097938389199408  0.4433917235002203
  0.1552323691666733  0.4940070782212474  0.5698226562963968
  0.6963213395834499  0.1394880222715281  0.0348043682159371
  0.1346330678528931  0.6490359196188631  0.0861559142040016
 
  0.00000000E+00  0.00000000E+00  0.00000000E+00
  0.00000000E+00  0.00000000E+00  0.00000000E+00
  0.00000000E+00  0.00000000E+00  0.00000000E+00
  0.00000000E+00  0.00000000E+00  0.00000000E+00
  0.00000000E+00  0.00000000E+00  0.00000000E+00
  0.00000000E+00  0.00000000E+00  0.00000000E+00
  0.00000000E+00  0.00000000E+00  0.00000000E+00
  0.00000000E+00  0.00000000E+00  0.00000000E+00
  0.00000000E+00  0.00000000E+00  0.00000000E+00
  0.00000000E+00  0.00000000E+00  0.00000000E+00
  0.00000000E+00  0.00000000E+00  0.00000000E+00
  0.00000000E+00  0.00000000E+00  0.00000000E+00
