Sr2 Nb1 H9                              
   1.00000000000000     
     3.1862455575747970   -0.0263835326699698    0.7700706896478837
    -0.1158023313782518    6.3095104925158374    0.0504741066304182
     1.5404600152481995    0.4755608223507252    6.9241697282843537
   H    Sr   Nb
     9     2     1
Direct
  0.5155961412322206  0.8266387419850164  0.7008319861452550
  0.7737695242805011  0.7688103616374822  0.9430174658753993
  0.4028708261540231  0.1148078486108164  0.4462817837014199
  0.0430610559785989  0.9126948333157021  0.1893779647728292
  0.8602250584202038  0.6533661275942800  0.3650637566820731
  0.6387288225972789  0.8273024117477179  0.5776956233544903
  0.5396941219223523  0.4881799232292975  0.1769427300409662
  0.4780118813427638  0.2468064917387360  0.7472554523212986
  0.1674902378768980  0.1081827840051147  0.4442900438920047
  0.1572401741353392  0.4937736448405566  0.5679761106817265
  0.6975247615713960  0.1401791276411399  0.0348450393250417
  0.1336603944884399  0.6493717036541269  0.0860960432075239
 
  0.00000000E+00  0.00000000E+00  0.00000000E+00
  0.00000000E+00  0.00000000E+00  0.00000000E+00
  0.00000000E+00  0.00000000E+00  0.00000000E+00
  0.00000000E+00  0.00000000E+00  0.00000000E+00
  0.00000000E+00  0.00000000E+00  0.00000000E+00
  0.00000000E+00  0.00000000E+00  0.00000000E+00
  0.00000000E+00  0.00000000E+00  0.00000000E+00
  0.00000000E+00  0.00000000E+00  0.00000000E+00
  0.00000000E+00  0.00000000E+00  0.00000000E+00
  0.00000000E+00  0.00000000E+00  0.00000000E+00
  0.00000000E+00  0.00000000E+00  0.00000000E+00
  0.00000000E+00  0.00000000E+00  0.00000000E+00
