H16                                     
   1.00000000000000     
     5.1337345720523517    0.0013068811449727   -0.3763180285800061
     0.5741962679290082    5.3773505150092769   -0.2444550494690132
    -0.0790962818621535    0.6682391536356512    5.4345621497122201
   H 
    16
Direct
  0.4600049045278712  0.8951474798395608  0.4718727093112209
  0.3195948371949874  0.8705033139079490  0.4531498405165208
  0.8837480412612136  0.6425542990044270  0.3056436952208136
  0.3094121966812864  0.4315698836231118  0.5021951853108579
  0.9196337038074509  0.1589884386124577  0.5455658309063579
  0.7778063240783154  0.1711474943524706  0.4964434239093223
  0.7934040479378834  0.6097952561152351  0.7552360276042304
  0.0188883801014290  0.2332610359821420  0.0147010321805179
  0.1122573493610404  0.1631691710036855  0.1157244748868682
  0.4569491259654039  0.6276152137085125  0.0435719773267079
  0.6351837790048690  0.0497215575576624  0.9227399500158526
  0.3474067713085725  0.5473711049713263  0.0340367207070874
  0.9259634592357502  0.7384027083047939  0.2164685799845464
  0.5144953969998203  0.0750260827311495  0.9880435801878494
  0.3376224099787865  0.3434769298511035  0.6159502669681822
  0.9197812725553118  0.6668040304344320  0.7565147049630599
 
  0.00000000E+00  0.00000000E+00  0.00000000E+00
  0.00000000E+00  0.00000000E+00  0.00000000E+00
  0.00000000E+00  0.00000000E+00  0.00000000E+00
  0.00000000E+00  0.00000000E+00  0.00000000E+00
  0.00000000E+00  0.00000000E+00  0.00000000E+00
  0.00000000E+00  0.00000000E+00  0.00000000E+00
  0.00000000E+00  0.00000000E+00  0.00000000E+00
  0.00000000E+00  0.00000000E+00  0.00000000E+00
  0.00000000E+00  0.00000000E+00  0.00000000E+00
  0.00000000E+00  0.00000000E+00  0.00000000E+00
  0.00000000E+00  0.00000000E+00  0.00000000E+00
  0.00000000E+00  0.00000000E+00  0.00000000E+00
  0.00000000E+00  0.00000000E+00  0.00000000E+00
  0.00000000E+00  0.00000000E+00  0.00000000E+00
  0.00000000E+00  0.00000000E+00  0.00000000E+00
  0.00000000E+00  0.00000000E+00  0.00000000E+00
