Sr3 Nb2 H19                             
   1.00000000000000     
     5.2440225486037155    0.0799931745000261    0.1478264976400080
     0.0127243141133006    5.4324054529325796   -0.1496117760364949
    -0.9157571608840941   -0.4190299187605535    7.8833079878189896
   Nb   H    Nb   H    Sr   H    Sr
     1    11     1     7     1     1     2
Direct
  0.1505246939852507  0.4401647656833892  0.1961518751871835
  0.9120519142638318  0.6608290116656388  0.0968500043160854
  0.8854487742418018  0.2566075658310488  0.0939517920479590
  0.4769884100294418  0.3410219848505441  0.1699312218090921
  0.3551096080195739  0.6827523397518925  0.1217727925566779
  0.1734902504380219  0.3728896243926898  0.9632522892347912
  0.1888995139838513  0.1027207874200270  0.2190285198210760
  0.0874312374667434  0.1874460486782417  0.6046435704750824
  0.5002022159681941  0.1000515490508680  0.6299207616822321
  0.0943830617224035  0.2945143703437735  0.7039044061665535
  0.5243599016434241  0.9874656348967424  0.6809588141837617
  0.7342426533478077  0.3609904503142121  0.5776958348873533
  0.0136955359535955  0.5394224766678785  0.5523412402563196
  0.7091962111899495  0.6720133009548581  0.4906972662056412
  0.0285393642528519  0.8864866634607983  0.5681482560317144
  0.8939634252804638  0.3733235423585275  0.3410129439135269
  0.8532083387430061  0.6782488914196517  0.7338227018740610
  0.2896217460293294  0.6452045664360404  0.7059471611539294
  0.1055181126266269  0.7143992557376306  0.3531840914858048
  0.3020055794177751  0.3967192283712492  0.4208090913082298
  0.6756997672869350  0.9824544220946563  0.2957198468998706
  0.6095477882620266  0.9470626051287141  0.9550341486302997
  0.6039958480643837  0.4409761866054379  0.8870871280155425
  0.1162670477827017  0.9280117278854889  0.9194192418572164
 
  0.00000000E+00  0.00000000E+00  0.00000000E+00
  0.00000000E+00  0.00000000E+00  0.00000000E+00
  0.00000000E+00  0.00000000E+00  0.00000000E+00
  0.00000000E+00  0.00000000E+00  0.00000000E+00
  0.00000000E+00  0.00000000E+00  0.00000000E+00
  0.00000000E+00  0.00000000E+00  0.00000000E+00
  0.00000000E+00  0.00000000E+00  0.00000000E+00
  0.00000000E+00  0.00000000E+00  0.00000000E+00
  0.00000000E+00  0.00000000E+00  0.00000000E+00
  0.00000000E+00  0.00000000E+00  0.00000000E+00
  0.00000000E+00  0.00000000E+00  0.00000000E+00
  0.00000000E+00  0.00000000E+00  0.00000000E+00
  0.00000000E+00  0.00000000E+00  0.00000000E+00
  0.00000000E+00  0.00000000E+00  0.00000000E+00
  0.00000000E+00  0.00000000E+00  0.00000000E+00
  0.00000000E+00  0.00000000E+00  0.00000000E+00
  0.00000000E+00  0.00000000E+00  0.00000000E+00
  0.00000000E+00  0.00000000E+00  0.00000000E+00
  0.00000000E+00  0.00000000E+00  0.00000000E+00
  0.00000000E+00  0.00000000E+00  0.00000000E+00
  0.00000000E+00  0.00000000E+00  0.00000000E+00
  0.00000000E+00  0.00000000E+00  0.00000000E+00
  0.00000000E+00  0.00000000E+00  0.00000000E+00
  0.00000000E+00  0.00000000E+00  0.00000000E+00
