Sr1 Nb2 H10
1.0
3.195326 -0.000000 0.000000
-0.351577 5.083434 -0.000000
-0.853032 -1.517622 7.163551
Nb H Nb H Sr
1 6 1 4 1
direct
0.009707 0.039623 0.416976 Nb
0.964486 0.872760 0.501600 H
0.077980 0.604232 0.548637 H
0.574723 0.105495 0.550017 H
0.312327 0.951903 0.823097 H
0.497757 0.884650 0.781021 H
0.205741 0.734794 0.810286 H
0.646222 0.674267 0.689569 Nb
0.777429 0.802779 0.952271 H
0.706311 0.233716 0.809275 H
0.938101 0.470399 0.276038 H
0.346872 0.910004 0.199446 H
0.322177 0.350711 0.044383 Sr
