Sr1 Nb2 H7                              
   1.00000000000000     
     3.1858747857347685   -0.0257608300285214   -0.5260971829418531
    -0.5668334653511212    4.8797829772502554   -0.6206647763475287
    -2.0130122792314351   -2.7762959643145044    7.0912587541034462
   H    Sr   H    Nb   H    Nb   H 
     3     1     2     1     1     1     1
Direct
  0.4285722147340802  0.2215874356054882  0.2299400035765850
  0.5788753859352259  0.3282085828067386  0.3596491362320686
  0.4075684108526330  0.4345728078494642  0.5829907107071106
  0.1179344764958194  0.6679409799764425  0.3006748810412577
  0.1412962251132381  0.8359579998485760  0.6432276066145796
  0.9770365897139318  0.5579031228570637  0.9379035439149719
  0.8191320719553234  0.8393065390348824  0.8201572271466908
  0.5148884191840041  0.1502889747903683  0.9772283762499229
  0.2765063684942725  0.3010136417828759  0.7660488056664587
  0.8516368375214586  0.0713619154480831  0.4691717088503424
 
  0.00000000E+00  0.00000000E+00  0.00000000E+00
  0.00000000E+00  0.00000000E+00  0.00000000E+00
  0.00000000E+00  0.00000000E+00  0.00000000E+00
  0.00000000E+00  0.00000000E+00  0.00000000E+00
  0.00000000E+00  0.00000000E+00  0.00000000E+00
  0.00000000E+00  0.00000000E+00  0.00000000E+00
  0.00000000E+00  0.00000000E+00  0.00000000E+00
  0.00000000E+00  0.00000000E+00  0.00000000E+00
  0.00000000E+00  0.00000000E+00  0.00000000E+00
  0.00000000E+00  0.00000000E+00  0.00000000E+00
