Sr2 Nb1 H8
1.0
3.647524 -0.075432 0.310010
0.034992 5.449010 0.448749
1.389234 2.222783 5.790308
Sr Nb H
2 1 8
direct
0.222956 0.102402 0.952709 Sr
0.509825 0.415790 0.329049 Sr
0.921307 0.742463 0.633804 Nb
0.976628 0.716267 0.331933 H
0.293975 0.595352 0.782255 H
0.723791 0.406384 0.947230 H
0.985815 0.106658 0.359092 H
0.901525 0.381907 0.637100 H
0.406233 0.823342 0.410701 H
0.276048 0.976199 0.638290 H
0.729933 0.820747 0.920890 H
