H20                                     
   1.00000000000000     
     5.4204071282494422    0.0350264270803542    0.0729034640990181
     0.3698943418079544    5.0609083806684341    0.4577111732883372
     0.4661080505139226    1.2478366270408838    7.1196071602047200
   H 
    20
Direct
  0.7687425310118825  0.6588512855307225  0.1391212844501083
  0.6328821948999889  0.6866118460501500  0.1250320545487784
  0.5399741707340732  0.3815533663297425  0.4712585978889606
  0.6597923384399578  0.3082958842664251  0.5054703798380372
  0.1039181008792683  0.5279621328986411  0.4095138672886864
  0.0843240756904571  0.6077651761387939  0.4834240150457481
  0.5556837947173550  0.7227539668273165  0.6237076012777020
  0.9753424145106326  0.9793938787775893  0.7096160483044101
  0.0478271643428436  0.0187295899717030  0.6150565525600239
  0.8584329184193015  0.0231206775072077  0.2686481720255374
  0.8965294654289405  0.1641286836363006  0.2204932170354830
  0.5026342345585554  0.8628617018059368  0.6243197536877348
  0.3134762225545549  0.0773574362400690  0.2403674099863011
  0.4268533675676060  0.1473178247028264  0.2493060351050778
  0.4278279289882811  0.2068909390288183  0.9063663980088240
  0.4104373512140327  0.2295740431406343  0.8016039131708398
  0.9700763131964736  0.4128963254272960  0.8437572140743009
  0.8313803492315235  0.4266988000362251  0.8531688933497344
  0.2704931618001834  0.7330622437035984  0.9687263443905415
  0.1847059018140821  0.6738761979800042  0.0531122479631870
 
  0.00000000E+00  0.00000000E+00  0.00000000E+00
  0.00000000E+00  0.00000000E+00  0.00000000E+00
  0.00000000E+00  0.00000000E+00  0.00000000E+00
  0.00000000E+00  0.00000000E+00  0.00000000E+00
  0.00000000E+00  0.00000000E+00  0.00000000E+00
  0.00000000E+00  0.00000000E+00  0.00000000E+00
  0.00000000E+00  0.00000000E+00  0.00000000E+00
  0.00000000E+00  0.00000000E+00  0.00000000E+00
  0.00000000E+00  0.00000000E+00  0.00000000E+00
  0.00000000E+00  0.00000000E+00  0.00000000E+00
  0.00000000E+00  0.00000000E+00  0.00000000E+00
  0.00000000E+00  0.00000000E+00  0.00000000E+00
  0.00000000E+00  0.00000000E+00  0.00000000E+00
  0.00000000E+00  0.00000000E+00  0.00000000E+00
  0.00000000E+00  0.00000000E+00  0.00000000E+00
  0.00000000E+00  0.00000000E+00  0.00000000E+00
  0.00000000E+00  0.00000000E+00  0.00000000E+00
  0.00000000E+00  0.00000000E+00  0.00000000E+00
  0.00000000E+00  0.00000000E+00  0.00000000E+00
  0.00000000E+00  0.00000000E+00  0.00000000E+00
