Sr2 Nb2 H13                             
   1.00000000000000     
     3.8389998475708840   -0.2486707393903463   -0.5576024612343312
     0.3477954224037935    6.5727504925691935   -0.5420660299168440
     0.1382216126378448    0.4535510658482849    5.6197497487314028
   H    Nb   H    Nb   H    Sr
     4     1     5     1     4     2
Direct
  0.0975109898884091  0.5895862730019938  0.9452393176878378
  0.0966456620501974  0.2012907226904125  0.9456749300356108
  0.4761548555682456  0.3951599041508507  0.1953795168507457
  0.6399558064304042  0.6704687187316348  0.0960506385920004
  0.2778733089637930  0.6503264190919898  0.2719204648200620
  0.1285754019768595  0.3954339722782427  0.4169389384908935
  0.2945004883879724  0.1034609756395395  0.6040812362994509
  0.7100093515491602  0.1782548053101432  0.4357415777828145
  0.5202097457451091  0.8952485653866156  0.3543372859583941
  0.6377975127423908  0.1196276714129564  0.0943106130130943
  0.2776268341769763  0.1400257650975183  0.2715600287168113
  0.0233672210117868  0.8952893506497093  0.3416345740244293
  0.2937800763995537  0.6873047937635627  0.6041463016029373
  0.7090570693079633  0.6117660184092456  0.4371409427816095
  0.2692144966786387  0.8951985091996385  0.0719033414809700
  0.5735508088929679  0.3953604571708009  0.7970160661285278
  0.8405823702295687  0.8953760780151353  0.7405172257338530
 
  0.00000000E+00  0.00000000E+00  0.00000000E+00
  0.00000000E+00  0.00000000E+00  0.00000000E+00
  0.00000000E+00  0.00000000E+00  0.00000000E+00
  0.00000000E+00  0.00000000E+00  0.00000000E+00
  0.00000000E+00  0.00000000E+00  0.00000000E+00
  0.00000000E+00  0.00000000E+00  0.00000000E+00
  0.00000000E+00  0.00000000E+00  0.00000000E+00
  0.00000000E+00  0.00000000E+00  0.00000000E+00
  0.00000000E+00  0.00000000E+00  0.00000000E+00
  0.00000000E+00  0.00000000E+00  0.00000000E+00
  0.00000000E+00  0.00000000E+00  0.00000000E+00
  0.00000000E+00  0.00000000E+00  0.00000000E+00
  0.00000000E+00  0.00000000E+00  0.00000000E+00
  0.00000000E+00  0.00000000E+00  0.00000000E+00
  0.00000000E+00  0.00000000E+00  0.00000000E+00
  0.00000000E+00  0.00000000E+00  0.00000000E+00
  0.00000000E+00  0.00000000E+00  0.00000000E+00
