Sr1 Nb1 H15
1.0
5.025239 -0.165758 0.460381
-0.029486 5.169669 0.944474
1.467853 1.569006 5.573219
Sr Nb H
1 1 15
direct
0.681577 0.378430 0.309549 Sr
0.096173 0.816679 0.531749 Nb
0.935710 0.770018 0.869829 H
0.045136 0.577351 0.395289 H
0.500870 0.185999 0.850866 H
0.350360 0.951759 0.631846 H
0.989969 0.142403 0.530952 H
0.646663 0.152798 0.797910 H
0.963999 0.979163 0.263157 H
0.693716 0.685999 0.724034 H
0.696298 0.768781 0.570318 H
0.324525 0.464343 0.066583 H
0.331531 0.625987 0.004923 H
0.066893 0.389732 0.697377 H
0.111747 0.423272 0.802810 H
0.438876 0.732927 0.384271 H
0.338344 0.113293 0.248410 H
