Sr1 Nb1 H9                              
   1.00000000000000     
     5.2641697278400894   -0.4280396392928493    0.1441121955275575
     1.7650072690732603    4.6734196816088032   -0.6699326340611361
     0.0021149039443915    1.6907227569740939    3.4811703672988950
   H    Nb   H    Sr
     3     1     6     1
Direct
  0.2948653704075561  0.3594932295210110  0.6359170002015859
  0.1304702830994434  0.4480647705249574  0.6379435901158771
  0.9855583039796495  0.6296387449659592  0.8752911551101463
  0.3040986007621944  0.6888225358558090  0.7698355953216173
  0.6057267397007899  0.5535778824971320  0.0568291333978207
  0.2506023542195113  0.8165424842731681  0.2187494038797686
  0.3233028744063396  0.3659132519894496  0.1253488572418065
  0.4818469257313276  0.9706823416108751  0.6595559077797359
  0.0366362724064223  0.0447237375521466  0.6286634468650384
  0.5913503236414256  0.4683602375280509  0.6257456472766102
  0.7379899516453577  0.0000507836814390  0.1569022628099946
 
  0.00000000E+00  0.00000000E+00  0.00000000E+00
  0.00000000E+00  0.00000000E+00  0.00000000E+00
  0.00000000E+00  0.00000000E+00  0.00000000E+00
  0.00000000E+00  0.00000000E+00  0.00000000E+00
  0.00000000E+00  0.00000000E+00  0.00000000E+00
  0.00000000E+00  0.00000000E+00  0.00000000E+00
  0.00000000E+00  0.00000000E+00  0.00000000E+00
  0.00000000E+00  0.00000000E+00  0.00000000E+00
  0.00000000E+00  0.00000000E+00  0.00000000E+00
  0.00000000E+00  0.00000000E+00  0.00000000E+00
  0.00000000E+00  0.00000000E+00  0.00000000E+00
