Sr1 Nb2 H8                              
   1.00000000000000     
     4.3828639911676248   -0.7867797086375088   -0.0655852213696335
    -1.1437493678816046    6.4739126147935702   -0.3030849456724861
     2.1366215122093259   -1.0578134148575509    3.9822240232794823
   H    Nb   H    Sr   H    Nb
     1     1     4     1     3     1
Direct
  0.7930021227515640  0.0211974190242240  0.4765476184375683
  0.3207568140341256  0.9511233750971582  0.4598595054994805
  0.3593256134866328  0.0272137728484030  0.0533418813624607
  0.4742202009859908  0.7382392500636942  0.0537395049545539
  0.4305907410454995  0.2682301687020250  0.5644491034694112
  0.8379030696358255  0.4901845374487080  0.9641755980899694
  0.1347597755970101  0.3795941166646267  0.2631912753393501
  0.9076883935491211  0.7317002891971408  0.4780852617147653
 -0.0749763716960973  0.0232229458513935  0.9018745598904243
  0.3423262147184966  0.7354264128076596  0.6282729203111238
  0.9461404258918211  0.8074107122949764  0.0701907709308771
 
  0.00000000E+00  0.00000000E+00  0.00000000E+00
  0.00000000E+00  0.00000000E+00  0.00000000E+00
  0.00000000E+00  0.00000000E+00  0.00000000E+00
  0.00000000E+00  0.00000000E+00  0.00000000E+00
  0.00000000E+00  0.00000000E+00  0.00000000E+00
  0.00000000E+00  0.00000000E+00  0.00000000E+00
  0.00000000E+00  0.00000000E+00  0.00000000E+00
  0.00000000E+00  0.00000000E+00  0.00000000E+00
  0.00000000E+00  0.00000000E+00  0.00000000E+00
  0.00000000E+00  0.00000000E+00  0.00000000E+00
  0.00000000E+00  0.00000000E+00  0.00000000E+00
