Sr4 Nb2 H18                             
   1.00000000000000     
     5.9202902306773915   -0.1268783914333479   -0.4725687866380561
     1.5475038180724143    6.4178523105970999    0.4754140492370438
    -0.6194231694675759    2.9467628913577966    7.1586728712917891
   Sr   Nb   H 
     4     2    18
Direct
  0.0351374193624409  0.9813523746354986  0.9239728526141898
  0.0169992839223143  0.9351339875668832  0.4426814752341369
  0.6942277601315697  0.5776813845950187  0.3065876556090685
  0.6282020188935863  0.5958583089464059  0.8023702209327859
  0.4213911369113979  0.2131850268483030  0.6151290690483994
  0.2596539590338936  0.3600771464254062  0.0595123352741119
  0.9027986266339822  0.8440726902405087  0.1982533361646913
  0.6027004649844144  0.2663029858691303  0.1425422055621671
  0.6915901151395067  0.1597736110907854  0.5327489468146223
  0.4337420809825352  0.9959890290773687  0.5270313291037569
  0.6693078317349368  0.2962857643072156  0.7099340983111705
  0.3714137862343125  0.2642230936649135  0.8626643452672942
  0.6479340966409687  0.9551611547920212  0.8180582847134320
  0.3205253914430997  0.9730752550829966  0.7538807114735384
  0.0252652390161766  0.3617870629752276  0.8785664570933371
  0.1791287359497984  0.6151044219022205  0.8143492064624031
  0.3683484077355709  0.6070821455948149  0.0527362816804075
  0.3368223940519626  0.0223058154774089  0.1729377014930434
  0.3347288035672522  0.3529223344548590  0.3291516045110499
  0.0804375995691106  0.2861488218393697  0.5334392899010002
  0.0217731171975726  0.2679486903611870  0.1586023119525014
  0.7755387342413405  0.7003064762564980  0.5335379413262560
 -0.0002314064144111  0.5877924468410083  0.0361726408431844
  0.3444264030366671  0.5507019711549559  0.5073176986134604
 
  0.00000000E+00  0.00000000E+00  0.00000000E+00
  0.00000000E+00  0.00000000E+00  0.00000000E+00
  0.00000000E+00  0.00000000E+00  0.00000000E+00
  0.00000000E+00  0.00000000E+00  0.00000000E+00
  0.00000000E+00  0.00000000E+00  0.00000000E+00
  0.00000000E+00  0.00000000E+00  0.00000000E+00
  0.00000000E+00  0.00000000E+00  0.00000000E+00
  0.00000000E+00  0.00000000E+00  0.00000000E+00
  0.00000000E+00  0.00000000E+00  0.00000000E+00
  0.00000000E+00  0.00000000E+00  0.00000000E+00
  0.00000000E+00  0.00000000E+00  0.00000000E+00
  0.00000000E+00  0.00000000E+00  0.00000000E+00
  0.00000000E+00  0.00000000E+00  0.00000000E+00
  0.00000000E+00  0.00000000E+00  0.00000000E+00
  0.00000000E+00  0.00000000E+00  0.00000000E+00
  0.00000000E+00  0.00000000E+00  0.00000000E+00
  0.00000000E+00  0.00000000E+00  0.00000000E+00
  0.00000000E+00  0.00000000E+00  0.00000000E+00
  0.00000000E+00  0.00000000E+00  0.00000000E+00
  0.00000000E+00  0.00000000E+00  0.00000000E+00
  0.00000000E+00  0.00000000E+00  0.00000000E+00
  0.00000000E+00  0.00000000E+00  0.00000000E+00
  0.00000000E+00  0.00000000E+00  0.00000000E+00
  0.00000000E+00  0.00000000E+00  0.00000000E+00
