Sr1 Nb1 H11                             
   1.00000000000000     
     3.5584217284564388    0.3301274644576386   -0.4963342614532521
    -0.5280027457204131    5.5476813701051499    0.1585353214989176
    -0.9089139252921956   -0.2585750629435803    5.1583302704686078
   H    Nb   H    Sr   H 
     6     1     1     1     4
Direct
  0.2840115290880367  0.2899413501799085  0.8513665380001376
  0.3526748027215960  0.9890885496455897  0.5675246202631288
  0.5109308044724483  0.3106381162587585  0.8542218687897816
  0.9768491116163524  0.8723593145146675  0.8591152146658774
  0.9742411528959529  0.7353832081066258  0.8549872961209347
  0.3849994243188863  0.6083614342397576  0.5819479263385831
  0.2178659602052466  0.3032773991073114  0.4667348049796990
  0.1144364074816615  0.5036101336957918  0.1697454602216996
  0.6774478156320050  0.8051348405879006  0.2737033273776525
  0.8922711714182759  0.1424900397815088  0.6061201302441493
  0.9052838363460134  0.4827697973442353  0.5925559161358213
  0.7051484130363564  0.2987942618934519  0.2698219191727020
  0.1195945707671688  0.1126415546444854  0.1592279776898258
 
  0.00000000E+00  0.00000000E+00  0.00000000E+00
  0.00000000E+00  0.00000000E+00  0.00000000E+00
  0.00000000E+00  0.00000000E+00  0.00000000E+00
  0.00000000E+00  0.00000000E+00  0.00000000E+00
  0.00000000E+00  0.00000000E+00  0.00000000E+00
  0.00000000E+00  0.00000000E+00  0.00000000E+00
  0.00000000E+00  0.00000000E+00  0.00000000E+00
  0.00000000E+00  0.00000000E+00  0.00000000E+00
  0.00000000E+00  0.00000000E+00  0.00000000E+00
  0.00000000E+00  0.00000000E+00  0.00000000E+00
  0.00000000E+00  0.00000000E+00  0.00000000E+00
  0.00000000E+00  0.00000000E+00  0.00000000E+00
  0.00000000E+00  0.00000000E+00  0.00000000E+00
