Sr2 Nb1 H12                             
   1.00000000000000     
     3.6765362589920412    0.2730449906344101   -0.3936294797972301
    -0.0075386977486951    6.6383145863511839   -0.2585266520857327
    -1.9242441591236854   -2.3753732088563595    6.7191457280065254
   Sr   Nb   H 
     2     1    12
Direct
  0.4733310274602283  0.5265523178236030  0.1236041631684171
  0.4152539245464210  0.7645682942045003  0.7066089597964720
  0.8187277392003471  0.2128798881358034  0.6133022527043769
  0.9677968844328146  0.1921037150565374  0.0966207041615032
  0.0132479601189739  0.2497936932656414  0.2128294855655203
  0.7197765680169474  0.4475915695034228  0.5104843561601032
  0.6878437732660910  0.1003658849320640  0.3032149353075154
  0.2592544165244747  0.3868376818348938  0.7251962567409453
  0.1419387179997760  0.8053575592055634  0.9758111071067964
  0.7728749344385308  0.9129446142252499  0.5436907036088036
  0.1201325972630128  0.6325036450025208  0.3330903308994643
  0.8323716149819654  0.4445628207163687  0.8452644538484347
  0.2357185727362888  0.0854962021971555  0.5395846290569410
  0.1000104071201745  0.1523983921947496  0.8495091784313444
  0.5085478618939570  0.0383927217019309  0.3021364834433632
 
  0.00000000E+00  0.00000000E+00  0.00000000E+00
  0.00000000E+00  0.00000000E+00  0.00000000E+00
  0.00000000E+00  0.00000000E+00  0.00000000E+00
  0.00000000E+00  0.00000000E+00  0.00000000E+00
  0.00000000E+00  0.00000000E+00  0.00000000E+00
  0.00000000E+00  0.00000000E+00  0.00000000E+00
  0.00000000E+00  0.00000000E+00  0.00000000E+00
  0.00000000E+00  0.00000000E+00  0.00000000E+00
  0.00000000E+00  0.00000000E+00  0.00000000E+00
  0.00000000E+00  0.00000000E+00  0.00000000E+00
  0.00000000E+00  0.00000000E+00  0.00000000E+00
  0.00000000E+00  0.00000000E+00  0.00000000E+00
  0.00000000E+00  0.00000000E+00  0.00000000E+00
  0.00000000E+00  0.00000000E+00  0.00000000E+00
  0.00000000E+00  0.00000000E+00  0.00000000E+00
