Sr1 Nb1 H20                             
   1.00000000000000     
     4.1162158955650128   -0.4503855489839537   -0.2914849047604670
     0.2444397628457029    6.5644047777951204   -1.1109282039262487
     0.0371630332799763   -1.1258665368856569    5.8402572561677175
   H    Nb   H    Sr   H 
     2     1     7     1    11
Direct
  0.2618114261267065  0.0004809492842007  0.8295183676055604
  0.4266138826928283  0.7449633913471860  0.9284633254136569
  0.0072883529080024  0.7371986632252355  0.8045135092974851
  0.7186043323879969  0.9193472400971985  0.7343267634335889
  0.3885814463759992  0.3658983796234228  0.8715736698135931
  0.5327563949677357  0.3108498194663249  0.8971807283610336
  0.1988925254649221  0.0282075058970056  0.9666282611835487
  0.9743232781634356  0.8966173775462788  0.1295421159112020
  0.8283634459751567  0.0821577259870528  0.5629503296401495
  0.0124340518097954  0.7161127708246293  0.4838936504305096
  0.5022946237617049  0.7275010032242982  0.3012838039759265
  0.8389710741295738  0.4404576346037013  0.6182076129594530
  0.3015296694526497  0.1122726834403410  0.4063573528916792
  0.3555454558490138  0.1269566624267486  0.5336928039159559
  0.6079715191181380  0.2253644113264825  0.2019743936736997
  0.6954096308231777  0.1348717376678464  0.1196823689821442
  0.1519870304424768  0.3514395921146822  0.1610870232305447
  0.1621203396468059  0.3795829128781958  0.2961749084229744
  0.0062108065002128  0.5673907982162361 -0.0089706034694786
  0.6657385600002653  0.4941951671692500  0.6460661525548598
  0.8431930210787002  0.1028555083842913  0.4462151065831587
  0.2241231323246859  0.5095270652493777  0.6341983551887495
 
  0.00000000E+00  0.00000000E+00  0.00000000E+00
  0.00000000E+00  0.00000000E+00  0.00000000E+00
  0.00000000E+00  0.00000000E+00  0.00000000E+00
  0.00000000E+00  0.00000000E+00  0.00000000E+00
  0.00000000E+00  0.00000000E+00  0.00000000E+00
  0.00000000E+00  0.00000000E+00  0.00000000E+00
  0.00000000E+00  0.00000000E+00  0.00000000E+00
  0.00000000E+00  0.00000000E+00  0.00000000E+00
  0.00000000E+00  0.00000000E+00  0.00000000E+00
  0.00000000E+00  0.00000000E+00  0.00000000E+00
  0.00000000E+00  0.00000000E+00  0.00000000E+00
  0.00000000E+00  0.00000000E+00  0.00000000E+00
  0.00000000E+00  0.00000000E+00  0.00000000E+00
  0.00000000E+00  0.00000000E+00  0.00000000E+00
  0.00000000E+00  0.00000000E+00  0.00000000E+00
  0.00000000E+00  0.00000000E+00  0.00000000E+00
  0.00000000E+00  0.00000000E+00  0.00000000E+00
  0.00000000E+00  0.00000000E+00  0.00000000E+00
  0.00000000E+00  0.00000000E+00  0.00000000E+00
  0.00000000E+00  0.00000000E+00  0.00000000E+00
  0.00000000E+00  0.00000000E+00  0.00000000E+00
  0.00000000E+00  0.00000000E+00  0.00000000E+00
