pymatgen with grid density = 1336 / number of atoms
0
Gamma
4 3 3
