Sr1 Nb1 H9
1.0
5.264170 -0.428040 0.144112
1.765007 4.673420 -0.669933
0.002115 1.690723 3.481170
Sr Nb H
1 1 9
direct
0.737990 0.000051 0.156902 Sr
0.304099 0.688823 0.769836 Nb
0.294865 0.359493 0.635917 H
0.130470 0.448065 0.637944 H
0.985558 0.629639 0.875291 H
0.605727 0.553578 0.056829 H
0.250602 0.816542 0.218749 H
0.323303 0.365913 0.125349 H
0.481847 0.970682 0.659556 H
0.036636 0.044724 0.628663 H
0.591350 0.468360 0.625746 H
