Sr2 Nb1 H12                             
   1.00000000000000     
     5.0595711212573677    0.0434378380888226    0.5124874920424399
     0.0784136207134741    4.9932138033310123   -0.0546100209245166
     1.6342036956555230    0.0236503886625150    6.1126867181700746
   H    Nb   H    Sr
     7     1     5     2
Direct
  0.1888427633001810  0.8565528060929515  0.2863650882516149
  0.0948958624299000  0.9066209890694152  0.2089568710921516
  0.9109998023696698  0.6252130623446077  0.4947057700104132
  0.8500418904576091  0.5056443206677605  0.4035344094858285
  0.9193201680988083  0.1277676888127536  0.5520356417018791
  0.0237019027102490  0.4181021764629030  0.7159048480454904
  0.6791591961248870  0.7527203049413925  0.7192852128778792
  0.6674977333013483  0.3936198338123287  0.7139305872010312
  0.6912361653893607  0.5493777591830051  0.9731559415700848
  0.4640613857169753  0.5887035533100715  0.5738084576352630
  0.2997017192578783  0.4275663825483479  0.9303543196179344
  0.4838271036489489  0.1438184763715819  0.5975010011189090
  0.6283047822529512  0.1194099394767112  0.9275401334681790
  0.3578156686901184  0.3238993898377295  0.2980944023757274
  0.1004168562511139  0.8821713170684365  0.8198683155476277
 
  0.00000000E+00  0.00000000E+00  0.00000000E+00
  0.00000000E+00  0.00000000E+00  0.00000000E+00
  0.00000000E+00  0.00000000E+00  0.00000000E+00
  0.00000000E+00  0.00000000E+00  0.00000000E+00
  0.00000000E+00  0.00000000E+00  0.00000000E+00
  0.00000000E+00  0.00000000E+00  0.00000000E+00
  0.00000000E+00  0.00000000E+00  0.00000000E+00
  0.00000000E+00  0.00000000E+00  0.00000000E+00
  0.00000000E+00  0.00000000E+00  0.00000000E+00
  0.00000000E+00  0.00000000E+00  0.00000000E+00
  0.00000000E+00  0.00000000E+00  0.00000000E+00
  0.00000000E+00  0.00000000E+00  0.00000000E+00
  0.00000000E+00  0.00000000E+00  0.00000000E+00
  0.00000000E+00  0.00000000E+00  0.00000000E+00
  0.00000000E+00  0.00000000E+00  0.00000000E+00
