Sr2 Nb1 H16                             
   1.00000000000000     
     3.4980005716268812    0.2344530331336790    0.2021408356218596
     1.0931973908315860    7.6186438230781555    0.1957211811771558
     1.2596302472931984    1.3192061750443287    6.5270229829234321
   H    Nb   H    Sr   H    Sr
     9     1     6     1     1     1
Direct
  0.3808204927405542  0.7598652602902247  0.5619017896828012
  0.4117913550495833  0.6791746439258430  0.5091662299907634
  0.0602349384766717  0.4808974285547903  0.5008437015823813
  0.2583434097515974  0.3963335208135843  0.1140521596373265
  0.5294857686088058  0.6068776144597530  0.2150023582615774
  0.2319595575490910  0.9967080971578883  0.6777305702346391
  0.2604476022728139  0.0026813679455469  0.5598070228898833
  0.4014317420216598  0.9034982097235609  0.0683880343590281
  0.5847220872250990  0.9123160589227275  0.1180566919068584
  0.4104214175550611  0.1764820547606614  0.0168562636026101
  0.9217239926068124  0.1062435377435209  0.1576420424825476
  0.0068447793635688  0.2406125593930258  0.8677857204926649
  0.4715608128345864  0.3716302204443096  0.7976760981762852
  0.6231430900373395  0.0791546282430292  0.7835732776400306
  0.3359076317898479  0.1191157172621576  0.3023672619571930
  0.7454183773149767  0.6079550309103523  0.2197429941633932
  0.8470191467468438  0.5853495032847784  0.8320578138540508
  0.2255644805895507  0.7431365447124652  0.9354309083844580
  0.6774763174655253  0.2790120014517947  0.4541900607015273
 
  0.00000000E+00  0.00000000E+00  0.00000000E+00
  0.00000000E+00  0.00000000E+00  0.00000000E+00
  0.00000000E+00  0.00000000E+00  0.00000000E+00
  0.00000000E+00  0.00000000E+00  0.00000000E+00
  0.00000000E+00  0.00000000E+00  0.00000000E+00
  0.00000000E+00  0.00000000E+00  0.00000000E+00
  0.00000000E+00  0.00000000E+00  0.00000000E+00
  0.00000000E+00  0.00000000E+00  0.00000000E+00
  0.00000000E+00  0.00000000E+00  0.00000000E+00
  0.00000000E+00  0.00000000E+00  0.00000000E+00
  0.00000000E+00  0.00000000E+00  0.00000000E+00
  0.00000000E+00  0.00000000E+00  0.00000000E+00
  0.00000000E+00  0.00000000E+00  0.00000000E+00
  0.00000000E+00  0.00000000E+00  0.00000000E+00
  0.00000000E+00  0.00000000E+00  0.00000000E+00
  0.00000000E+00  0.00000000E+00  0.00000000E+00
  0.00000000E+00  0.00000000E+00  0.00000000E+00
  0.00000000E+00  0.00000000E+00  0.00000000E+00
  0.00000000E+00  0.00000000E+00  0.00000000E+00
