Sr1 Nb5 H18                             
   1.00000000000000     
     4.8926346293276692    0.4197882880052781    1.0058718700063485
    -0.4088745934557381    6.0122930844230602    0.2217570172235676
    -1.2989611531360308   -0.6210138229829278    6.0630044216586727
   H    Nb   H    Nb   H    Nb   H    Nb   H    Nb   H    Sr   H 
     2     1     1     1     7     1     2     1     4     1     1     1     1
Direct
  0.4064877832317058  0.8571423351305002  0.4243601661940610
  0.0236082228461445  0.0613329352828983  0.0625664826025950
  0.7227767279200263  0.8137073572355278  0.6226694634993518
  0.5670583935297158  0.5902303787971781  0.7989894354848456
  0.2024377179532753  0.5601594879295163  0.8845195401941000
  0.8818084070205563  0.7521731320103436  0.9011918664410484
  0.8630661995693335  0.7418269006960004  0.3446189141589204
  0.8774431885040551  0.0628259480541778  0.4598572831531950
  0.1777809443072036  0.7620071893241825  0.1315473759245116
  0.8820279753446728  0.3839467028697951  0.3590657461934812
  0.5796424911417729  0.5622832963558103  0.4534769417205387
  0.3892319836186499  0.2686627228965923  0.4177927419616648
  0.2322472040847661  0.0678296893760868  0.6213672035685154
  0.1193757960309129  0.7553017993223979  0.6422825304486830
  0.0244902054015858  0.0844455314241011  0.1859677173329095
  0.2004654095307895  0.5681524066913892  0.3727524846803540
  0.0975179492682201  0.3855442917287933  0.6245185873973642
  0.0718320968095826  0.4089031873627879  0.1240551130806085
  0.4487852309954326  0.5207830388838747  0.1303362636743600
  0.8709725704692161  0.3976847178959260  0.8984603191865772
  0.7154536112623044  0.3276750946346308  0.6265379468089017
  0.4048078653180218  0.2689583950807514  0.8317354301802344
  0.5419283054976297  0.0419942343409663  0.1183919066529908
  0.8819027203444343  0.0740182266757994  0.7885325394602051
 
  0.00000000E+00  0.00000000E+00  0.00000000E+00
  0.00000000E+00  0.00000000E+00  0.00000000E+00
  0.00000000E+00  0.00000000E+00  0.00000000E+00
  0.00000000E+00  0.00000000E+00  0.00000000E+00
  0.00000000E+00  0.00000000E+00  0.00000000E+00
  0.00000000E+00  0.00000000E+00  0.00000000E+00
  0.00000000E+00  0.00000000E+00  0.00000000E+00
  0.00000000E+00  0.00000000E+00  0.00000000E+00
  0.00000000E+00  0.00000000E+00  0.00000000E+00
  0.00000000E+00  0.00000000E+00  0.00000000E+00
  0.00000000E+00  0.00000000E+00  0.00000000E+00
  0.00000000E+00  0.00000000E+00  0.00000000E+00
  0.00000000E+00  0.00000000E+00  0.00000000E+00
  0.00000000E+00  0.00000000E+00  0.00000000E+00
  0.00000000E+00  0.00000000E+00  0.00000000E+00
  0.00000000E+00  0.00000000E+00  0.00000000E+00
  0.00000000E+00  0.00000000E+00  0.00000000E+00
  0.00000000E+00  0.00000000E+00  0.00000000E+00
  0.00000000E+00  0.00000000E+00  0.00000000E+00
  0.00000000E+00  0.00000000E+00  0.00000000E+00
  0.00000000E+00  0.00000000E+00  0.00000000E+00
  0.00000000E+00  0.00000000E+00  0.00000000E+00
  0.00000000E+00  0.00000000E+00  0.00000000E+00
  0.00000000E+00  0.00000000E+00  0.00000000E+00
