Sr1 Nb5 H18                             
   1.00000000000000     
     4.8833705827509384    0.3866216123499855    1.0436523023146855
    -0.4577692880165445    5.9650706645311358    0.2915715828693738
    -1.2525041673572306   -0.5320743861304809    6.0596815769001280
   H    Nb   H    Nb   H    Nb   H    Nb   H    Nb   H    Sr   H 
     2     1     1     1     7     1     2     1     4     1     1     1     1
Direct
  0.4043835686655175  0.8612339213271589  0.4219911016868292
  0.1082927175894995  0.0791769076098550  0.0590684762402820
  0.7120187006522979  0.8118900202274354  0.6233278351570010
  0.5600806638932316  0.5840406994020393  0.8066833133874327
  0.1899814804420487  0.5585777044389529  0.8836650408443262
  0.8715461261513393  0.7491017087372185  0.9042759146433172
  0.8621093420540515  0.7464447246914716  0.3457942931734647
  0.8715343230516696  0.0662953818285357  0.4622182089440716
  0.2298535025328063  0.7615687459942647  0.1238928691430221
  0.8711154487227005  0.3851215019343392  0.3584875307480914
  0.5701484846784781  0.5650003605216867  0.4494269040135267
  0.3857166095994883  0.2679316888082556  0.4165253463550008
  0.2219504625876823  0.0638194507764785  0.6207910027380735
  0.1063768022098179  0.7504617885590322  0.6372303881064656
  0.1068038711288788  0.0895498235307038  0.1868122905976551
  0.1917024068850981  0.5677568778765154  0.3721423926136905
  0.0854757955788938  0.3813366284209520  0.6258744630094877
 -0.0061497049624465  0.4598841726438424  0.1295365509246398
  0.4105044599804287  0.4666403543760244  0.1274243486661765
  0.8572109939627839  0.3914683487497185  0.8994981103847596
  0.7045858725223740  0.3265761623239993  0.6282660674809610
  0.3912060452955449  0.2612202185423450  0.8339041730615347
  0.6041862122371292  0.0521579417901560  0.1218002548991482
  0.8725148145406808  0.0703338668890373  0.7869571231810519
 
  0.00000000E+00  0.00000000E+00  0.00000000E+00
  0.00000000E+00  0.00000000E+00  0.00000000E+00
  0.00000000E+00  0.00000000E+00  0.00000000E+00
  0.00000000E+00  0.00000000E+00  0.00000000E+00
  0.00000000E+00  0.00000000E+00  0.00000000E+00
  0.00000000E+00  0.00000000E+00  0.00000000E+00
  0.00000000E+00  0.00000000E+00  0.00000000E+00
  0.00000000E+00  0.00000000E+00  0.00000000E+00
  0.00000000E+00  0.00000000E+00  0.00000000E+00
  0.00000000E+00  0.00000000E+00  0.00000000E+00
  0.00000000E+00  0.00000000E+00  0.00000000E+00
  0.00000000E+00  0.00000000E+00  0.00000000E+00
  0.00000000E+00  0.00000000E+00  0.00000000E+00
  0.00000000E+00  0.00000000E+00  0.00000000E+00
  0.00000000E+00  0.00000000E+00  0.00000000E+00
  0.00000000E+00  0.00000000E+00  0.00000000E+00
  0.00000000E+00  0.00000000E+00  0.00000000E+00
  0.00000000E+00  0.00000000E+00  0.00000000E+00
  0.00000000E+00  0.00000000E+00  0.00000000E+00
  0.00000000E+00  0.00000000E+00  0.00000000E+00
  0.00000000E+00  0.00000000E+00  0.00000000E+00
  0.00000000E+00  0.00000000E+00  0.00000000E+00
  0.00000000E+00  0.00000000E+00  0.00000000E+00
  0.00000000E+00  0.00000000E+00  0.00000000E+00
