Sr1 Nb1 H19                             
   1.00000000000000     
     5.1893215641077095   -0.2275423631846732    0.1224584066843323
     0.7093492543363602    5.2498168750937220   -0.4045952594559637
     1.1389508671635626    0.0230219114537279    5.8187268573507751
   H    Nb   H    Sr
    12     1     7     1
Direct
 -0.0019882114667214  0.9793392334788202  0.0520541486766920
  0.8771439903611108  0.9975874826611183  0.1517825729797238
  0.7946720166976921  0.5525809433094071  0.1941894502205927
  0.6978416195326352  0.6048017693833178  0.7099016828117624
  0.8047100475818912  0.5023172160505861  0.7475522578932782
  0.9068899713620091  0.5864947043860131  0.0997475608285414
 -0.0027771630328385  0.8065446945562207  0.4506221078475082
  0.1139222418361820  0.7801443973187149  0.5069342803557386
  0.4480454297479781  0.5539260301185152  0.5199916490482082
  0.4694541545792567  0.8638657070357710  0.2515497782663170
  0.4374792762633944  0.8389473827370302  0.1330223619435779
  0.6226457748861257  0.9558315315078650  0.7343427270992819
  0.4971039603831298  0.3088331813705830  0.7223209853669246
  0.5957404767182729  0.3067686799571771 -0.0040296901407011
  0.7474776578666430  0.2364424927425320  0.4499924611153240
  0.3157062600313036  0.5751838026222554  0.9184322658697157
  0.3985278718114107  0.0570515310172514  0.5496493645118031
  0.2773985661445825  0.1222364797266315  0.9065451901406874
  0.7328458691052784  0.0244909089055108  0.7888741238522154
  0.1565538353298996  0.3664276733470143  0.7172075322221564
  0.1917653542607569  0.3090421577676623  0.2904061890906741
 
  0.00000000E+00  0.00000000E+00  0.00000000E+00
  0.00000000E+00  0.00000000E+00  0.00000000E+00
  0.00000000E+00  0.00000000E+00  0.00000000E+00
  0.00000000E+00  0.00000000E+00  0.00000000E+00
  0.00000000E+00  0.00000000E+00  0.00000000E+00
  0.00000000E+00  0.00000000E+00  0.00000000E+00
  0.00000000E+00  0.00000000E+00  0.00000000E+00
  0.00000000E+00  0.00000000E+00  0.00000000E+00
  0.00000000E+00  0.00000000E+00  0.00000000E+00
  0.00000000E+00  0.00000000E+00  0.00000000E+00
  0.00000000E+00  0.00000000E+00  0.00000000E+00
  0.00000000E+00  0.00000000E+00  0.00000000E+00
  0.00000000E+00  0.00000000E+00  0.00000000E+00
  0.00000000E+00  0.00000000E+00  0.00000000E+00
  0.00000000E+00  0.00000000E+00  0.00000000E+00
  0.00000000E+00  0.00000000E+00  0.00000000E+00
  0.00000000E+00  0.00000000E+00  0.00000000E+00
  0.00000000E+00  0.00000000E+00  0.00000000E+00
  0.00000000E+00  0.00000000E+00  0.00000000E+00
  0.00000000E+00  0.00000000E+00  0.00000000E+00
  0.00000000E+00  0.00000000E+00  0.00000000E+00
