Sr1 Nb3 H16                             
   1.00000000000000     
     5.4683301569413345   -0.6732801087836844   -0.0682562343207310
    -0.3856657852851727    5.5158377066066642   -1.0260277217997911
     0.6728742792371895   -1.2408610386034906    5.4353039447899221
   H    Nb   H    Nb   H    Nb   H    Sr
     2     1     7     1     2     1     5     1
Direct
  0.9188092876269134  0.9967746223785360  0.6614496319140223
  0.9467051812683093  0.5519122415707789  0.4786674995942899
  0.0763293213030626  0.7794326121977972  0.3380425475951114
  0.9308144263258618  0.7445083990540166  0.0229379809152588
  0.3711016496624165  0.0728932075044104  0.4695440458249728
  0.1759516277890942  0.1125784624542928  0.2063193960118292
  0.7112835596446878  0.2274549080974025  0.9807939819151912
  0.0335199569006021  0.1144786636264113  0.2458515285059410
  0.3861288029437844  0.2451581701682320  0.9228145386475441
  0.5959893164194922  0.7723818398760575  0.8624468947506746
  0.5683362741767578  0.9964325134996118  0.6624147707078704
  0.8925635367961929  0.4619256955525786  0.1587944927080236
  0.2321085951604601  0.8520996674977103  0.6772620454309821
  0.6095534868294047  0.5917164082123406  0.1023091504203152
  0.5706278249619999  0.6241692183147979  0.4581726532677620
  0.7004936449347371  0.9713280621341774  0.3339384436131775
  0.3262718283400836  0.7647377702840472  0.0825055185336728
  0.2487764330616107  0.5018951349842067  0.2454743770676115
  0.6813015035455702  0.3552152323533906  0.7032229891046493
  0.1725727423089319  0.4318531702391878  0.6952925134711098
 
  0.00000000E+00  0.00000000E+00  0.00000000E+00
  0.00000000E+00  0.00000000E+00  0.00000000E+00
  0.00000000E+00  0.00000000E+00  0.00000000E+00
  0.00000000E+00  0.00000000E+00  0.00000000E+00
  0.00000000E+00  0.00000000E+00  0.00000000E+00
  0.00000000E+00  0.00000000E+00  0.00000000E+00
  0.00000000E+00  0.00000000E+00  0.00000000E+00
  0.00000000E+00  0.00000000E+00  0.00000000E+00
  0.00000000E+00  0.00000000E+00  0.00000000E+00
  0.00000000E+00  0.00000000E+00  0.00000000E+00
  0.00000000E+00  0.00000000E+00  0.00000000E+00
  0.00000000E+00  0.00000000E+00  0.00000000E+00
  0.00000000E+00  0.00000000E+00  0.00000000E+00
  0.00000000E+00  0.00000000E+00  0.00000000E+00
  0.00000000E+00  0.00000000E+00  0.00000000E+00
  0.00000000E+00  0.00000000E+00  0.00000000E+00
  0.00000000E+00  0.00000000E+00  0.00000000E+00
  0.00000000E+00  0.00000000E+00  0.00000000E+00
  0.00000000E+00  0.00000000E+00  0.00000000E+00
  0.00000000E+00  0.00000000E+00  0.00000000E+00
