Sr1 Nb1 H6                              
   1.00000000000000     
     3.3400925084232287   -0.6720334673080047    0.4359146800642318
    -2.3529606978843782    6.1249353179016328    0.4291938406834276
    -0.5453860360359438   -0.4407783968840048    3.3552872097483606
   H    Nb   H    Sr   H 
     4     1     1     1     1
Direct
  0.7990820824548991  0.9310554847955702  0.7394679220141289
  0.3242163094665083  0.9302031605630211  0.2733165856328573
  0.3381200879264351  0.4436789783032154  0.2379682468735017
  0.6746790527313189  0.2817214968083229  0.2664519173772547
  0.9603822521348409  0.1060029734917834  0.2791330268761998
  0.6643328263047675  0.7680313120957786  0.2355987249832221
  0.9839969051254163  0.6057535868100942  0.7572381559999382
  0.1480844838558123  0.2813690071322160  0.7406384202429084
 
  0.00000000E+00  0.00000000E+00  0.00000000E+00
  0.00000000E+00  0.00000000E+00  0.00000000E+00
  0.00000000E+00  0.00000000E+00  0.00000000E+00
  0.00000000E+00  0.00000000E+00  0.00000000E+00
  0.00000000E+00  0.00000000E+00  0.00000000E+00
  0.00000000E+00  0.00000000E+00  0.00000000E+00
  0.00000000E+00  0.00000000E+00  0.00000000E+00
  0.00000000E+00  0.00000000E+00  0.00000000E+00
