Sr2 Nb1 H7                              
   1.00000000000000     
     3.7560798736373626    0.0333876005730423    0.5445640364368747
    -0.0668725603144168    5.4830382956189148   -0.0338920812570248
     0.7160596049068800   -2.6778343209308271    5.4462526650437741
   H    Nb   H    Sr
     3     1     4     2
Direct
  0.5466175505736448  0.4144688397351861  0.4725982980551396
  0.6647138987858249  0.4818996285349744  0.0481263229189833
  0.6628967966334137  0.9293946384303223  0.0427061550432747
  0.7165674151077074  0.5632917398245610  0.7660970494681357
  0.9457403994307308  0.2005309564341339  0.5221315205699959
  0.3016545974051244  0.7636736089949352  0.7902815302298648
  0.3179138328604008  0.3741533386072281  0.7878465593834767
  0.9439964263843901  0.6792130672161122  0.5166920092980994
  0.1374557489666645  0.2393621447545347  0.1176825960463396
  0.4699293338521016  0.9068090374680102  0.4531589589866927
 
  0.00000000E+00  0.00000000E+00  0.00000000E+00
  0.00000000E+00  0.00000000E+00  0.00000000E+00
  0.00000000E+00  0.00000000E+00  0.00000000E+00
  0.00000000E+00  0.00000000E+00  0.00000000E+00
  0.00000000E+00  0.00000000E+00  0.00000000E+00
  0.00000000E+00  0.00000000E+00  0.00000000E+00
  0.00000000E+00  0.00000000E+00  0.00000000E+00
  0.00000000E+00  0.00000000E+00  0.00000000E+00
  0.00000000E+00  0.00000000E+00  0.00000000E+00
  0.00000000E+00  0.00000000E+00  0.00000000E+00
