H16                                     
   1.00000000000000     
     4.4048771702104723   -0.1109516766411234    0.0825482420363466
    -0.2453838769819709    4.5528418779896578    0.0884353832102308
    -1.4128695536734031   -0.0551189200064443    5.2376604581101027
   H 
    16
Direct
  0.8546916993932793  0.5107881443254390  0.8706255437565489
  0.7525684113380713  0.4192399355450411  0.7661840348068798
  0.6890312269273026  0.8943579704925239  0.8044147589829633
  0.6857241672282439  0.6592032859879787  0.2691696079460741
  0.1750959637705411  0.5891372644467557  0.2555841197655390
  0.1314476257252337  0.6643431045303119  0.1302039949151156
  0.1894214360807264  0.1368865937416110  0.9212389400050096
  0.0771786310293641  0.9662384097139427  0.5413938732446305
  0.9787286539237698  0.0762892120217745  0.5760759546058105
  0.6062141599772473  0.0158945864333318  0.8394942066209524
  0.4980143039201386  0.1762789606387666  0.3502250765871118
  0.2706249589972398  0.4566098680347729  0.6845568745142474
  0.2673528694237354  0.0743979313846183  0.0480289921466226
  0.6583608811438652  0.8146303784090189  0.2330455506814801
  0.2256894334211296  0.6049518006171427  0.6374639822302701
  0.5552145777001171  0.2783225536769644  0.4599824891907489
 
  0.00000000E+00  0.00000000E+00  0.00000000E+00
  0.00000000E+00  0.00000000E+00  0.00000000E+00
  0.00000000E+00  0.00000000E+00  0.00000000E+00
  0.00000000E+00  0.00000000E+00  0.00000000E+00
  0.00000000E+00  0.00000000E+00  0.00000000E+00
  0.00000000E+00  0.00000000E+00  0.00000000E+00
  0.00000000E+00  0.00000000E+00  0.00000000E+00
  0.00000000E+00  0.00000000E+00  0.00000000E+00
  0.00000000E+00  0.00000000E+00  0.00000000E+00
  0.00000000E+00  0.00000000E+00  0.00000000E+00
  0.00000000E+00  0.00000000E+00  0.00000000E+00
  0.00000000E+00  0.00000000E+00  0.00000000E+00
  0.00000000E+00  0.00000000E+00  0.00000000E+00
  0.00000000E+00  0.00000000E+00  0.00000000E+00
  0.00000000E+00  0.00000000E+00  0.00000000E+00
  0.00000000E+00  0.00000000E+00  0.00000000E+00
