Sr2 Nb2 H17                             
   1.00000000000000     
     5.5975277740563278    0.6049420162483711    1.1100344332301952
     0.7608617472421998    5.5221760463364618    0.1197754354231482
     1.7760301137639030    0.5412052283089084    6.8402548057624797
   Sr   Nb   H 
     2     2    17
Direct
  0.4026664713419610  0.6499163129849779  0.0642006081164388
  0.2082042089202302  0.2373325816025967  0.6383667668850694
  0.7096703010751072  0.6685463125916129  0.4859560702508645
  0.8899319970253750  0.2212784174887368  0.2171942220003333
  0.7920921371373053  0.6171579879978548  0.7129159717421560
  0.0509626808550582  0.6615772440798512  0.4330887006507523
  0.6956790029880743  0.0701805209806481  0.8987234514452449
  0.7097903230316287  0.0089521364643618  0.8014749180994273
  0.4382156208386938  0.8386993943114605  0.7121642728960610
  0.1778236546322254  0.0330224946472031  0.2477889492383260
  0.5963455686161723  0.1893043629106047  0.1920340785108205
  0.9099376715217053  0.5756801693951189  0.1912685202232107
  0.8576042022502224  0.3918980250667831  0.9885407430815814
  0.0317518218137475  0.9986852484074116  0.0018850288553587
  0.8892695229291775  0.8731761844238377  0.1823203839183116
  0.2018032602979631  0.2964457525589156  0.0179903220148161
  0.8919925813665301  0.3310798732350722  0.4654390271503367
  0.5748068413127251  0.4543516114190446  0.3821255395103597
  0.7206322182374264  0.0160840467799557  0.4793132289173987
  0.4386900486174052  0.8372760829578653  0.4160343110313314
  0.4868918651912670  0.4880102396960939  0.6971338854617825
 
  0.00000000E+00  0.00000000E+00  0.00000000E+00
  0.00000000E+00  0.00000000E+00  0.00000000E+00
  0.00000000E+00  0.00000000E+00  0.00000000E+00
  0.00000000E+00  0.00000000E+00  0.00000000E+00
  0.00000000E+00  0.00000000E+00  0.00000000E+00
  0.00000000E+00  0.00000000E+00  0.00000000E+00
  0.00000000E+00  0.00000000E+00  0.00000000E+00
  0.00000000E+00  0.00000000E+00  0.00000000E+00
  0.00000000E+00  0.00000000E+00  0.00000000E+00
  0.00000000E+00  0.00000000E+00  0.00000000E+00
  0.00000000E+00  0.00000000E+00  0.00000000E+00
  0.00000000E+00  0.00000000E+00  0.00000000E+00
  0.00000000E+00  0.00000000E+00  0.00000000E+00
  0.00000000E+00  0.00000000E+00  0.00000000E+00
  0.00000000E+00  0.00000000E+00  0.00000000E+00
  0.00000000E+00  0.00000000E+00  0.00000000E+00
  0.00000000E+00  0.00000000E+00  0.00000000E+00
  0.00000000E+00  0.00000000E+00  0.00000000E+00
  0.00000000E+00  0.00000000E+00  0.00000000E+00
  0.00000000E+00  0.00000000E+00  0.00000000E+00
  0.00000000E+00  0.00000000E+00  0.00000000E+00
