Sr1 Nb4 H15                             
   1.00000000000000     
     5.1291038950801040   -0.2189013199264387    0.2829759366913034
     0.7405393928895699    5.5290783762981484   -0.2722171369711411
     0.5554528138090111    0.4326145492132295    5.8078891976460278
   H    Nb   H    Nb   H    Nb   H    Nb   H    Sr
     3     1     2     1     1     1     2     1     7     1
Direct
  0.9461059606572002  0.9451137033046054  0.0906606755226357
  0.6354529522339311  0.6613673652933897  0.5286095318393257
  0.0419725855021710  0.2992279767733059  0.0197804163598242
  0.8632958669289480  0.1129168714415369  0.3441116974094225
  0.9574394135704832  0.7983544878306342  0.4414173370613473
  0.5826778003135009  0.9627154747778331  0.2316725463892791
  0.3404389587166567  0.7458853178249936  0.4100928369506256
  0.2181435000411288  0.9943972916439794  0.2100630456660132
  0.2644721642752383  0.2197145250807825  0.7028945106911171
  0.4961958541448063  0.0930633180975927  0.9013729737532447
  0.0821520057076989  0.3699850251719071  0.4083665729557613
  0.3630846531754386  0.3082616928031707  0.1651711251839573
  0.4553320222795738  0.4277884603844877  0.8568484447035132
  0.1753442491217266  0.5568630006729002  0.6630598917518660
  0.2632307160736764  0.6430750223471929  0.1196935158639988
  0.2826328765648415  0.8731399321650510  0.7171751913544997
  0.9109561530611631  0.1485050801442657  0.6689842969489951
  0.5328483521346312  0.2828144114602207  0.4634514124412723
  0.6139673812403038  0.5267733205554536  0.2357526780591177
  0.7730325342568711  0.7218417222266943  0.8637332990941780
 
  0.00000000E+00  0.00000000E+00  0.00000000E+00
  0.00000000E+00  0.00000000E+00  0.00000000E+00
  0.00000000E+00  0.00000000E+00  0.00000000E+00
  0.00000000E+00  0.00000000E+00  0.00000000E+00
  0.00000000E+00  0.00000000E+00  0.00000000E+00
  0.00000000E+00  0.00000000E+00  0.00000000E+00
  0.00000000E+00  0.00000000E+00  0.00000000E+00
  0.00000000E+00  0.00000000E+00  0.00000000E+00
  0.00000000E+00  0.00000000E+00  0.00000000E+00
  0.00000000E+00  0.00000000E+00  0.00000000E+00
  0.00000000E+00  0.00000000E+00  0.00000000E+00
  0.00000000E+00  0.00000000E+00  0.00000000E+00
  0.00000000E+00  0.00000000E+00  0.00000000E+00
  0.00000000E+00  0.00000000E+00  0.00000000E+00
  0.00000000E+00  0.00000000E+00  0.00000000E+00
  0.00000000E+00  0.00000000E+00  0.00000000E+00
  0.00000000E+00  0.00000000E+00  0.00000000E+00
  0.00000000E+00  0.00000000E+00  0.00000000E+00
  0.00000000E+00  0.00000000E+00  0.00000000E+00
  0.00000000E+00  0.00000000E+00  0.00000000E+00
