Sr1 Nb2 H8                              
   1.00000000000000     
     3.3067852346698894    0.4803712311826069   -0.1373166810877465
     0.8594989125004144    5.3135722051644692   -1.0976377619801496
     0.2154115873594420    0.1608722941880552    6.1119366782261340
   Sr   Nb   H 
     1     2     8
Direct
  0.1734126728943082  0.6964552240049816  0.7143686565518853
  0.5351577471937464  0.9742873501160930  0.2946780728859570
  0.8472884531460464  0.3505515237423818  0.1062671692833191
  0.6697411317903343  0.7049564241250986  0.0492252890469859
  0.4776255351539940  0.1025706378649124  0.0118497754408292
  0.2971937412860545  0.4514627833480874  0.9995343177607463
  0.1231368884156096  0.7966528401717387  0.3199118604457836
  0.9367188455179664  0.1749731046604698  0.3759309489477075
  0.3402778311757556  0.3714220972243134  0.3043395371541465
  0.8424813054307146  0.3557624932692205  0.8017886699831848
  0.5432328479954721  0.9585635214727157  0.5977027024994567
 
  0.00000000E+00  0.00000000E+00  0.00000000E+00
  0.00000000E+00  0.00000000E+00  0.00000000E+00
  0.00000000E+00  0.00000000E+00  0.00000000E+00
  0.00000000E+00  0.00000000E+00  0.00000000E+00
  0.00000000E+00  0.00000000E+00  0.00000000E+00
  0.00000000E+00  0.00000000E+00  0.00000000E+00
  0.00000000E+00  0.00000000E+00  0.00000000E+00
  0.00000000E+00  0.00000000E+00  0.00000000E+00
  0.00000000E+00  0.00000000E+00  0.00000000E+00
  0.00000000E+00  0.00000000E+00  0.00000000E+00
  0.00000000E+00  0.00000000E+00  0.00000000E+00
