Sr2 Nb2 H14                             
   1.00000000000000     
     3.5505693574337389   -0.0142598266464617   -0.1833217832581051
    -0.0022746929848256    5.3794440293508545   -0.5509021447321927
     0.4300724326138476   -0.4532227985813450    9.1515848465772738
   Sr   Nb   H 
     2     2    14
Direct
  0.6677782415985176  0.6364867564426842  0.4644817666410877
  0.6689806292255209  0.8008169180662214  0.8888778394061305
  0.1322527797374623  0.3840397228516441  0.1176260178644456
  0.1661742549428883  0.2211699688960589  0.6888374313879458
  0.2445332702641654  0.0941804189954160  0.2116809560238855
  0.1597645862228199  0.0158287056903417  0.1330265948918623
  0.8330941344446036  0.3254058920149096  0.2590603230461532
  0.6986096002499251  0.5708518052035513  0.1269335318327746
  0.1717582766269118  0.6854412592752100  0.0455405738622161
  0.3199257231951639  0.3280881687726231  0.2880379853902713
  0.7065277191871953  0.2134628740501015  0.0539723310257128
  0.6664890072666374  0.4038089432835986  0.7063315265306062
  0.1800780874431924  0.1530018650766191  0.9007592735442086
  0.6663583766151452  0.0763621161026527  0.6039890220368485
  0.1498241830328768  0.6531207898885597  0.2688608928838289
  0.1658665272921132  0.8726213959904286  0.6846826721715401
  0.1686013686020814  0.3715811753468639  0.5175077903464348
  0.1677802340527908  0.5030402240525282  0.8258504711140403
 
  0.00000000E+00  0.00000000E+00  0.00000000E+00
  0.00000000E+00  0.00000000E+00  0.00000000E+00
  0.00000000E+00  0.00000000E+00  0.00000000E+00
  0.00000000E+00  0.00000000E+00  0.00000000E+00
  0.00000000E+00  0.00000000E+00  0.00000000E+00
  0.00000000E+00  0.00000000E+00  0.00000000E+00
  0.00000000E+00  0.00000000E+00  0.00000000E+00
  0.00000000E+00  0.00000000E+00  0.00000000E+00
  0.00000000E+00  0.00000000E+00  0.00000000E+00
  0.00000000E+00  0.00000000E+00  0.00000000E+00
  0.00000000E+00  0.00000000E+00  0.00000000E+00
  0.00000000E+00  0.00000000E+00  0.00000000E+00
  0.00000000E+00  0.00000000E+00  0.00000000E+00
  0.00000000E+00  0.00000000E+00  0.00000000E+00
  0.00000000E+00  0.00000000E+00  0.00000000E+00
  0.00000000E+00  0.00000000E+00  0.00000000E+00
  0.00000000E+00  0.00000000E+00  0.00000000E+00
  0.00000000E+00  0.00000000E+00  0.00000000E+00
