pymatgen with grid density = 1755 / number of atoms
0
Gamma
7 4 2
