H17                                     
   1.00000000000000     
     3.0956371200118502    0.2528396281643038    0.0362086744656666
     0.4447297576187121    5.3157350418712195   -0.2457779335735816
     0.2680997045587450    0.4073359941526948    8.7140336573104236
   H 
    17
Direct
  0.5399758522914819  0.5159233843912187  0.1992255213900453
  0.3431415736322044  0.5816657830782799  0.2446072638192288
  0.9655890120837799  0.0114827173444989  0.7428019969084778
  0.8417904218038710  0.0834865448654028  0.6803838150265173
  0.0283506468353640  0.8235339074469153  0.9875497385201396
  0.6921673681987037  0.8285847125107839  0.9910458876287244
  0.3601500867503417  0.8266220072547285  0.9852130685819577
  0.2146487224925554  0.3354137766478540  0.4713115640299722
  0.2999025798668780  0.3910271691197676  0.5403143447645470
  0.2718664768809338  0.2984159968465609 -0.0032611688428435
  0.1684935482168786  0.3283398625227897  0.9214681799754981
  0.8879184365239585  0.1171085985556770  0.2762920863161250
  0.0730215224304735  0.0658102509861408  0.2208533377719218
  0.6440188322932294  0.5299704946662529  0.7704674974420823
  0.7192858475673592  0.6100056494335968  0.7071564528974240
  0.6256182792925589  0.8100338526707554  0.4394611790945290
  0.4516047928394283  0.8636062916587772  0.4984292346756574
 
  0.00000000E+00  0.00000000E+00  0.00000000E+00
  0.00000000E+00  0.00000000E+00  0.00000000E+00
  0.00000000E+00  0.00000000E+00  0.00000000E+00
  0.00000000E+00  0.00000000E+00  0.00000000E+00
  0.00000000E+00  0.00000000E+00  0.00000000E+00
  0.00000000E+00  0.00000000E+00  0.00000000E+00
  0.00000000E+00  0.00000000E+00  0.00000000E+00
  0.00000000E+00  0.00000000E+00  0.00000000E+00
  0.00000000E+00  0.00000000E+00  0.00000000E+00
  0.00000000E+00  0.00000000E+00  0.00000000E+00
  0.00000000E+00  0.00000000E+00  0.00000000E+00
  0.00000000E+00  0.00000000E+00  0.00000000E+00
  0.00000000E+00  0.00000000E+00  0.00000000E+00
  0.00000000E+00  0.00000000E+00  0.00000000E+00
  0.00000000E+00  0.00000000E+00  0.00000000E+00
  0.00000000E+00  0.00000000E+00  0.00000000E+00
  0.00000000E+00  0.00000000E+00  0.00000000E+00
