Sr2 Nb2 H19                             
   1.00000000000000     
     3.9949763057260905   -0.0263672857470771    0.0584577678679542
     0.2252015609003109    5.6007426200981172   -0.3206794731954650
     1.6362808954912016    1.6025684510503866    7.8873800922881800
   Nb   H    Nb   H    Sr   H    Sr
     1     8     1     3     1     8     1
Direct
  0.8463244573189881  0.1143253694677966  0.2644128423679719
  0.5081170455321034  0.1693341470210957  0.4413648982802616
  0.6540203391386655  0.4116078595569489  0.2174757062312959
  0.9741452170822096  0.1137879544307866  0.4663405900384098
  0.3633076295713373  0.0376493392568454  0.2388811612156892
  0.7411661687472827  0.8126053883457436  0.3797243632627325
  0.9095198565822354  0.8903357842541566  0.1183546223333055
  0.0879918512523740  0.6229343217685283  0.2951369604406212
  0.1853901807882693  0.4993024811244938  0.2961004137066116
  0.6646978593324964  0.2085146163768047  0.6807892728509575
  0.3817323260733969  0.1309879561566761  0.8832683484548236
  0.0103487128026887  0.6121902819481986  0.8705175354063377
  0.9249328569874865  0.4858539646956582  0.8539908574439358
  0.4661086912184387  0.7327193866615521  0.0126089855820836
  0.1214842062598057  0.2213576259527670  0.0249039079068749
  0.0455287804330907  0.3428736728367707  0.0702945167761651
  0.9146884782209267  0.9750241378650452  0.7794267664159067
  0.5117920774309407  0.8998408545292442  0.7070145162837393
  0.7299151801811697  0.4850749415919477  0.5260184570821870
  0.8118350012403434  0.2586675479325594  0.8662984817675545
  0.1572231557884743  0.2766852898579399  0.6396481050146710
  0.4717361726502065  0.4689670715935186  0.7721523981143620
  0.1972657553670107  0.7253160067749287  0.5556022930234829
 
  0.00000000E+00  0.00000000E+00  0.00000000E+00
  0.00000000E+00  0.00000000E+00  0.00000000E+00
  0.00000000E+00  0.00000000E+00  0.00000000E+00
  0.00000000E+00  0.00000000E+00  0.00000000E+00
  0.00000000E+00  0.00000000E+00  0.00000000E+00
  0.00000000E+00  0.00000000E+00  0.00000000E+00
  0.00000000E+00  0.00000000E+00  0.00000000E+00
  0.00000000E+00  0.00000000E+00  0.00000000E+00
  0.00000000E+00  0.00000000E+00  0.00000000E+00
  0.00000000E+00  0.00000000E+00  0.00000000E+00
  0.00000000E+00  0.00000000E+00  0.00000000E+00
  0.00000000E+00  0.00000000E+00  0.00000000E+00
  0.00000000E+00  0.00000000E+00  0.00000000E+00
  0.00000000E+00  0.00000000E+00  0.00000000E+00
  0.00000000E+00  0.00000000E+00  0.00000000E+00
  0.00000000E+00  0.00000000E+00  0.00000000E+00
  0.00000000E+00  0.00000000E+00  0.00000000E+00
  0.00000000E+00  0.00000000E+00  0.00000000E+00
  0.00000000E+00  0.00000000E+00  0.00000000E+00
  0.00000000E+00  0.00000000E+00  0.00000000E+00
  0.00000000E+00  0.00000000E+00  0.00000000E+00
  0.00000000E+00  0.00000000E+00  0.00000000E+00
  0.00000000E+00  0.00000000E+00  0.00000000E+00
