Sr2 Nb2 H14                             
   1.00000000000000     
     5.0386115643541896    0.0308906324086485   -0.0277188284434337
    -0.0323839537346923    5.2841407513744771    0.0432821108246809
    -0.0583519763416229   -2.3155453870862788    6.2109720580618353
   H    Nb   H    Nb   H    Sr
     2     1     5     1     7     2
Direct
  0.4591486136529168  0.2138866091367550  0.1270553656346655
  0.6161039865977596  0.5737182383479670  0.3087357479032998
  0.2646841436581510  0.4529903144314673  0.3434685822924661
  0.0528002490136213  0.2531527307734409  0.1154579622245025
  0.2165911699057379  0.1169531555543645  0.3547155255225043
  0.8953408980146843  0.3707383271192831  0.3818644827330889
  0.2315329407616976  0.6227206680047701  0.1354490847375918
  0.4190659105390132  0.7797819339132777  0.5550363744514232
  0.7540140849698801  0.6571008096821408  0.6052628115538203
  0.9635550686461190  0.8604841291675734  0.8334930909321597
  0.7546379913767943  0.0133934612018671  0.6311184570342825
  0.5286690882123567  0.7874284983597076  0.8409010470278947
  0.8169306529807785  0.4856390193847936  0.8050563468413737
  0.1435329756452513  0.5314500442860819  0.6189700207812927
  0.0229212759116949  0.7637742624606654  0.4513233704803197
  0.5238880548635019  0.3432632253342329  0.5075373122278455
  0.2569810633560549  0.1997630306600397  0.7819672082932151
  0.7767918318939943  0.9053735421815663  0.1718222093282532
 
  0.00000000E+00  0.00000000E+00  0.00000000E+00
  0.00000000E+00  0.00000000E+00  0.00000000E+00
  0.00000000E+00  0.00000000E+00  0.00000000E+00
  0.00000000E+00  0.00000000E+00  0.00000000E+00
  0.00000000E+00  0.00000000E+00  0.00000000E+00
  0.00000000E+00  0.00000000E+00  0.00000000E+00
  0.00000000E+00  0.00000000E+00  0.00000000E+00
  0.00000000E+00  0.00000000E+00  0.00000000E+00
  0.00000000E+00  0.00000000E+00  0.00000000E+00
  0.00000000E+00  0.00000000E+00  0.00000000E+00
  0.00000000E+00  0.00000000E+00  0.00000000E+00
  0.00000000E+00  0.00000000E+00  0.00000000E+00
  0.00000000E+00  0.00000000E+00  0.00000000E+00
  0.00000000E+00  0.00000000E+00  0.00000000E+00
  0.00000000E+00  0.00000000E+00  0.00000000E+00
  0.00000000E+00  0.00000000E+00  0.00000000E+00
  0.00000000E+00  0.00000000E+00  0.00000000E+00
  0.00000000E+00  0.00000000E+00  0.00000000E+00
