Sr2 Nb2 H11
1.0
4.485742 -0.136228 -0.314075
0.137961 6.867072 0.085895
0.428310 1.833328 5.038215
Sr Nb H
2 2 11
direct
0.294850 0.589601 0.954454 Sr
0.769280 0.979781 0.272498 Sr
0.802187 0.427528 0.498473 Nb
0.278955 0.163259 0.705222 Nb
0.288975 0.208016 0.024805 H
0.821046 0.146435 0.775520 H
0.792488 0.614824 0.684470 H
0.540055 0.647221 0.335030 H
0.211235 0.450175 0.601462 H
0.063515 0.262263 0.380874 H
0.790422 0.471184 0.146485 H
0.516521 0.267516 0.395250 H
0.304774 0.923150 0.008074 H
0.291196 0.938128 0.574161 H
0.007080 0.668448 0.305505 H
