Sr1 Nb2 H8                              
   1.00000000000000     
     3.1793908029293276    0.2127142408400901    0.5166887927862170
     1.3962352370043158    5.1362580243407630    0.8072170272689106
     2.1486939186947458    1.8557548064256388    6.6008814218332654
   H    Sr   H    Nb   H    Nb   H 
     1     1     1     1     3     1     3
Direct
  0.2944860278223392  0.6787485907984259  0.3160149146141063
  0.0533160487118965  0.4240332982099950  0.2109344218218245
  0.2684444221054226  0.8723958503146454  0.7655046366224160
  0.5814738904738199  0.0720255479267413  0.8235701796052163
  0.9009794425656918  0.0222095201541816  0.0288279297509381
  0.6917330371886474  0.6634126846569193  0.9402251763811037
  0.1773723118643020  0.2521149797667180  0.6259656842325482
  0.9994366388266150  0.6301913178771285  0.6196431182360229
  0.8840003875604285  0.0314524470498930  0.5353174611291502
  0.4072762872223071  0.4545192031748269  0.8114219250318122
  0.5877975056585454  0.7820055600705369  0.4520065525748770
 
  0.00000000E+00  0.00000000E+00  0.00000000E+00
  0.00000000E+00  0.00000000E+00  0.00000000E+00
  0.00000000E+00  0.00000000E+00  0.00000000E+00
  0.00000000E+00  0.00000000E+00  0.00000000E+00
  0.00000000E+00  0.00000000E+00  0.00000000E+00
  0.00000000E+00  0.00000000E+00  0.00000000E+00
  0.00000000E+00  0.00000000E+00  0.00000000E+00
  0.00000000E+00  0.00000000E+00  0.00000000E+00
  0.00000000E+00  0.00000000E+00  0.00000000E+00
  0.00000000E+00  0.00000000E+00  0.00000000E+00
  0.00000000E+00  0.00000000E+00  0.00000000E+00
