Sr1 Nb2 H8                              
   1.00000000000000     
     3.1855916930647186    0.2173938798527067    0.5060814806014363
     1.4177141300733382    5.1403989185421164    0.7211918896940680
     2.1397602825201827    1.7572232504919090    6.6072802814860969
   H    Sr   H    Nb   H    Nb   H 
     1     1     1     1     3     1     3
Direct
  0.3032866107008322  0.6559718733295398  0.3260587400346738
  0.0688686066222359  0.4218286654428849  0.2074091875391869
  0.2866892099196294  0.8693555154057641  0.7610407160529850
  0.5814460788297411  0.0768460228103206  0.8207565320683122
  0.8961537175498159  0.0273277985812033  0.0272011752124013
  0.6938374280011148  0.6703975469855477  0.9423762726634793
  0.1634266674152859  0.2524599034132412  0.6317846189601845
  0.9870004643676819  0.6339651565836234  0.6214086738548010
  0.8752471736623019  0.0360687536982239  0.5317445379052939
  0.4074037739720996  0.4561698012700439  0.8071578924914627
  0.5829562689592772  0.7827179624796186  0.4524936532172220
 
  0.00000000E+00  0.00000000E+00  0.00000000E+00
  0.00000000E+00  0.00000000E+00  0.00000000E+00
  0.00000000E+00  0.00000000E+00  0.00000000E+00
  0.00000000E+00  0.00000000E+00  0.00000000E+00
  0.00000000E+00  0.00000000E+00  0.00000000E+00
  0.00000000E+00  0.00000000E+00  0.00000000E+00
  0.00000000E+00  0.00000000E+00  0.00000000E+00
  0.00000000E+00  0.00000000E+00  0.00000000E+00
  0.00000000E+00  0.00000000E+00  0.00000000E+00
  0.00000000E+00  0.00000000E+00  0.00000000E+00
  0.00000000E+00  0.00000000E+00  0.00000000E+00
