Sr1 Nb2 H8                              
   1.00000000000000     
     3.1803004941069579    0.2132012856191795    0.5155264567640440
     1.3982691907151257    5.1277448940681953    0.8036899536902010
     2.1482928571172728    1.8497969680577067    6.5964851348499778
   H    Sr   H    Nb   H    Nb   H 
     1     1     1     1     3     1     3
Direct
  0.2943127597886913  0.6790300357481105  0.3160698553589983
  0.0532515298255510  0.4237612555447846  0.2112562345520606
  0.2694331550891095  0.8722285724676208  0.7652402751183736
  0.5815264295190388  0.0723892825208399  0.8226014122829393
  0.9009370997788239  0.0216679382565850  0.0291638621791716
  0.6922372412587388  0.6636166071118963  0.9400501331741220
  0.1764901095259914  0.2529998694776012  0.6261313648644314
  0.9989480163427310  0.6300734756855325  0.6199342812455705
  0.8840197239501622  0.0310676003508515  0.5356486393856184
  0.4074452049613621  0.4543988730934431  0.8114981535573144
  0.5877147299598229  0.7818754897427463  0.4518377882814013
 
  0.00000000E+00  0.00000000E+00  0.00000000E+00
  0.00000000E+00  0.00000000E+00  0.00000000E+00
  0.00000000E+00  0.00000000E+00  0.00000000E+00
  0.00000000E+00  0.00000000E+00  0.00000000E+00
  0.00000000E+00  0.00000000E+00  0.00000000E+00
  0.00000000E+00  0.00000000E+00  0.00000000E+00
  0.00000000E+00  0.00000000E+00  0.00000000E+00
  0.00000000E+00  0.00000000E+00  0.00000000E+00
  0.00000000E+00  0.00000000E+00  0.00000000E+00
  0.00000000E+00  0.00000000E+00  0.00000000E+00
  0.00000000E+00  0.00000000E+00  0.00000000E+00
