pymatgen with grid density = 1984 / number of atoms
0
Gamma
7 4 4
