H17                                     
   1.00000000000000     
     2.9685368803017340    0.0278325199301091   -0.0233004004803673
     0.9590365188281327    5.0982169041947865   -0.0370245003587725
     0.7000181103196700    0.2562749323262264    6.2605206214378297
   H 
    17
Direct
 -0.0003988626025466  0.7936199934311389  0.2614901003866923
  0.1471775814111165  0.7765854565542675  0.1602443048923606
  0.6016193815022359  0.8154642343514761  0.9085090185188855
  0.4150933404421221  0.8061654606772012  0.8508999890646072
  0.0830092447060105  0.5915137508172272  0.5873507494312598
  0.7839300808119233  0.5968076848181934  0.5808397527776571
  0.4285035375954966  0.5996030577158342  0.5805172579200576
  0.5327819570615531  0.2007825339814571  0.8042071447895938
  0.4800118108362141  0.3064606843107955  0.7495360756590334
  0.5005402058245957  0.1694674070526155  0.0990530940278166
  0.9161699128667584  0.0354850515514509  0.5929255571432057
  0.1153673302530656  0.9507181179404822  0.5629091433462033
  0.6852254756582061  0.4460816662922459  0.2054052824610444
  0.8825268685780843  0.3467272099680810  0.1421565667572280
  0.4011536073459878  0.2139120027044061  0.4107381106941423
  0.6391697820137167  0.3460818413126833  0.3956525812282998
  0.3873677456954653  0.1316218465204265  0.2783032709019196
 
  0.00000000E+00  0.00000000E+00  0.00000000E+00
  0.00000000E+00  0.00000000E+00  0.00000000E+00
  0.00000000E+00  0.00000000E+00  0.00000000E+00
  0.00000000E+00  0.00000000E+00  0.00000000E+00
  0.00000000E+00  0.00000000E+00  0.00000000E+00
  0.00000000E+00  0.00000000E+00  0.00000000E+00
  0.00000000E+00  0.00000000E+00  0.00000000E+00
  0.00000000E+00  0.00000000E+00  0.00000000E+00
  0.00000000E+00  0.00000000E+00  0.00000000E+00
  0.00000000E+00  0.00000000E+00  0.00000000E+00
  0.00000000E+00  0.00000000E+00  0.00000000E+00
  0.00000000E+00  0.00000000E+00  0.00000000E+00
  0.00000000E+00  0.00000000E+00  0.00000000E+00
  0.00000000E+00  0.00000000E+00  0.00000000E+00
  0.00000000E+00  0.00000000E+00  0.00000000E+00
  0.00000000E+00  0.00000000E+00  0.00000000E+00
  0.00000000E+00  0.00000000E+00  0.00000000E+00
