pymatgen with grid density = 2435 / number of atoms
0
Gamma
7 5 3
