Sr2 Nb1 H7                              
   1.00000000000000     
     3.4260541752403744   -0.0058370285635731    0.3377692374992910
     1.7219407144013046    3.8125291591285420    0.6093533237843303
     2.5707800426743237    0.3520517430274642    9.5122874453997266
   Sr   Nb   H 
     2     1     7
Direct
  0.4118812812825186  0.8739541111270053  0.9387780832698563
  0.8934144338101406  0.1389475962508887  0.3256987959273483
  0.3945042295251655  0.5690840967752504  0.6200151765396856
  0.1121241365825145  0.8303620388173054  0.7642829020355572
  0.8427545860230268  0.4510178400964340  0.7318304396739925
  0.2877074127430231  0.5709446993730173  0.2110472791381969
  0.5168838358540381  0.7140218935706142  0.4188390256525055
  0.4195346484733851  0.4124783802655417  0.1627595881430743
  0.6596029976296827  0.9687060891109478  0.1464096899407085
  0.0455484380765059  0.4424212546129968  0.0239060196790820
 
  0.00000000E+00  0.00000000E+00  0.00000000E+00
  0.00000000E+00  0.00000000E+00  0.00000000E+00
  0.00000000E+00  0.00000000E+00  0.00000000E+00
  0.00000000E+00  0.00000000E+00  0.00000000E+00
  0.00000000E+00  0.00000000E+00  0.00000000E+00
  0.00000000E+00  0.00000000E+00  0.00000000E+00
  0.00000000E+00  0.00000000E+00  0.00000000E+00
  0.00000000E+00  0.00000000E+00  0.00000000E+00
  0.00000000E+00  0.00000000E+00  0.00000000E+00
  0.00000000E+00  0.00000000E+00  0.00000000E+00
