H16                                     
   1.00000000000000     
     3.4692904595804515   -0.4955294215763142    0.0695115324949037
    -1.2619378119262732    4.3166362347371310   -0.6100155787586872
    -0.3136101555588017   -2.8046562226103537    7.1906943872389224
   H 
    16
Direct
  0.9009755582659170  0.4902341894089189  0.9267639965026815
  0.7533152518981319  0.5159363876789709  0.8747415468232160
  0.5472222643801444  0.9586656831273408  0.0514624568435590
  0.5314754432017397  0.9064878820952342  0.1307335080156533
  0.1953865480083055  0.1741403179721154  0.9734431234364705
  0.3149563813252000  0.5637288897925550  0.7370960269395522
  0.2872669666596459  0.3778371618614206  0.3790966147723333
  0.3714858579899205  0.4287590497056671  0.6544261602417873
  0.9516469530087137  0.7421943236385915  0.5309009363495601
  0.9738022727566005  0.6824238285056876  0.6033151174257348
  0.0754307003294359  0.0903349888715891  0.8713181065993960
  0.6432849235179052  0.0583841810213971  0.5578414474367842
  0.6325255683949639  0.0506006767864140  0.4595997206943913
  0.9243279638852486  0.7354044930449072  0.2419773790566200
  0.9273986516020122  0.5690067804392802  0.2383061124133954
  0.1876806947761068  0.2516921660499081  0.2714397464488523
 
  0.00000000E+00  0.00000000E+00  0.00000000E+00
  0.00000000E+00  0.00000000E+00  0.00000000E+00
  0.00000000E+00  0.00000000E+00  0.00000000E+00
  0.00000000E+00  0.00000000E+00  0.00000000E+00
  0.00000000E+00  0.00000000E+00  0.00000000E+00
  0.00000000E+00  0.00000000E+00  0.00000000E+00
  0.00000000E+00  0.00000000E+00  0.00000000E+00
  0.00000000E+00  0.00000000E+00  0.00000000E+00
  0.00000000E+00  0.00000000E+00  0.00000000E+00
  0.00000000E+00  0.00000000E+00  0.00000000E+00
  0.00000000E+00  0.00000000E+00  0.00000000E+00
  0.00000000E+00  0.00000000E+00  0.00000000E+00
  0.00000000E+00  0.00000000E+00  0.00000000E+00
  0.00000000E+00  0.00000000E+00  0.00000000E+00
  0.00000000E+00  0.00000000E+00  0.00000000E+00
  0.00000000E+00  0.00000000E+00  0.00000000E+00
