pymatgen with grid density = 2170 / number of atoms
0
Gamma
7 3 3
