Sr2 Nb4 H15                             
   1.00000000000000     
     3.4669612224241315    0.0888151528364081   -0.0590751774922400
    -0.1804037303603898    6.8880198122557905   -0.0311889432637306
    -1.5530064276865734   -1.7272568558575234    7.6046450731115254
   Sr   Nb   H 
     2     4    15
Direct
  0.8043910009097153  0.8390608772159173  0.9436178269271859
  0.7888489725397310  0.3409659024668960  0.9435534689244173
  0.1171724687398571  0.9966421335374726  0.5703225537946720
  0.1034517760800096  0.4976053825145891  0.5741349034786009
  0.4663768477058169  0.6788362921407605  0.3021002964379368
  0.4649955433712129  0.1802655949595792  0.3012840757014659
  0.0399362309184538  0.7096471908663423  0.4460833702748613
  0.0393531673686876  0.2217063389755163  0.4457346373018223
  0.1885008463899847  0.7834770033191066  0.7172754761329792
  0.1792886998378840  0.2832009455842144  0.7169742065196587
  0.9054413824015933  0.1597368663482271  0.1816704436001678
  0.1029873431865090  0.9358464783583763  0.3258538343920875
  0.9065768917253559  0.6394883556454036  0.1824600476236405
  0.4019251528191788  0.3996767327947769  0.1817680557930142
  0.4747841168110672  0.8997022077047084  0.1825822378829899
  0.5380726608155814  0.4647964182119011  0.4437047520209225
  0.5778984330052952  0.9676207616436054  0.4532991945415377
  0.3387767244760728  0.6150162900091949  0.0418656927780578
  0.3376045633827586  0.1139424849071911  0.0409227034144131
  0.6955324638653693  0.0333857167060983  0.7185709504466469
  0.6754757136498575  0.5330960260901186  0.7145292720129161
 
  0.00000000E+00  0.00000000E+00  0.00000000E+00
  0.00000000E+00  0.00000000E+00  0.00000000E+00
  0.00000000E+00  0.00000000E+00  0.00000000E+00
  0.00000000E+00  0.00000000E+00  0.00000000E+00
  0.00000000E+00  0.00000000E+00  0.00000000E+00
  0.00000000E+00  0.00000000E+00  0.00000000E+00
  0.00000000E+00  0.00000000E+00  0.00000000E+00
  0.00000000E+00  0.00000000E+00  0.00000000E+00
  0.00000000E+00  0.00000000E+00  0.00000000E+00
  0.00000000E+00  0.00000000E+00  0.00000000E+00
  0.00000000E+00  0.00000000E+00  0.00000000E+00
  0.00000000E+00  0.00000000E+00  0.00000000E+00
  0.00000000E+00  0.00000000E+00  0.00000000E+00
  0.00000000E+00  0.00000000E+00  0.00000000E+00
  0.00000000E+00  0.00000000E+00  0.00000000E+00
  0.00000000E+00  0.00000000E+00  0.00000000E+00
  0.00000000E+00  0.00000000E+00  0.00000000E+00
  0.00000000E+00  0.00000000E+00  0.00000000E+00
  0.00000000E+00  0.00000000E+00  0.00000000E+00
  0.00000000E+00  0.00000000E+00  0.00000000E+00
  0.00000000E+00  0.00000000E+00  0.00000000E+00
