H15                                     
   1.00000000000000     
     3.0551116149332191   -0.1001689854197682   -0.0514242005693479
     0.0724841827864905    6.4678574765124806   -0.4483458687060897
     0.3046072955662513    1.6623281772439260    7.0796851225030624
   H 
    15
Direct
  0.6837796866085141  0.9885818391366266  0.9876644805514507
  0.5662103208071926  0.1948390107235432  0.2174693598948516
  0.1234138653027536  0.4124729822219519  0.0023925922238765
  0.2030179449215609  0.5149995070311209  0.0259056205308966
  0.2566610108375869  0.6938562052580719  0.6883137578371012
  0.1679744124600210  0.7232159713656663  0.3142211390339710
  0.0730094777217806  0.8068030634343888  0.2439627776346106
  0.1103437739247198  0.0438084288883534  0.5813189061542059
  0.6686537633716856  0.4542320070841720  0.4224986932900050
  0.0630342234353019  0.1516167362281096  0.5994641024972882
  0.5528927649977574  0.4159663929150781  0.5136452718499548
  0.5908346645603320  0.6936186668780180  0.6881793354038176
  0.5482560867417117  0.0988650184327025  0.2899758193920387
  0.9236040154294004  0.6943332468783139  0.6880095050374654
  0.7937949888796997  0.9675669235238841  0.8997596386684616
 
  0.00000000E+00  0.00000000E+00  0.00000000E+00
  0.00000000E+00  0.00000000E+00  0.00000000E+00
  0.00000000E+00  0.00000000E+00  0.00000000E+00
  0.00000000E+00  0.00000000E+00  0.00000000E+00
  0.00000000E+00  0.00000000E+00  0.00000000E+00
  0.00000000E+00  0.00000000E+00  0.00000000E+00
  0.00000000E+00  0.00000000E+00  0.00000000E+00
  0.00000000E+00  0.00000000E+00  0.00000000E+00
  0.00000000E+00  0.00000000E+00  0.00000000E+00
  0.00000000E+00  0.00000000E+00  0.00000000E+00
  0.00000000E+00  0.00000000E+00  0.00000000E+00
  0.00000000E+00  0.00000000E+00  0.00000000E+00
  0.00000000E+00  0.00000000E+00  0.00000000E+00
  0.00000000E+00  0.00000000E+00  0.00000000E+00
  0.00000000E+00  0.00000000E+00  0.00000000E+00
