pymatgen with grid density = 1374 / number of atoms
0
Monkhorst
6 4 4
