Sr2 Nb1 H10                             
   1.00000000000000     
     4.5637745466420450   -0.0097308974547340   -0.0168730999223212
     0.0531630985420367    5.5645283743184777   -0.5371459905001399
    -0.0321891782729228    0.3814068696034096    5.7080806468958381
   H    Nb   H    Sr   H    Sr   H 
     2     1     5     1     2     1     1
Direct
  0.1389111975216345  0.9319552165260190  0.6890557535866115
  0.3235843421222645  0.8963737068134633  0.6117821739601504
  0.7407984233150732  0.8566133995929627  0.6218998317764273
  0.9495892222565914  0.6309336654027357  0.7826154233525462
  0.5242375723111977  0.6479932490186958  0.7844241140735476
  0.7107368536892681  0.0165362123541772  0.3376698224329088
  0.7484858463758569  0.9393468460919414  0.9360885442695207
  0.7446146728387941  0.1846839363085310  0.6674120653366716
  0.2530102951545428  0.8426975544740610  0.1049082901278811
  0.9841464568869585  0.6913167210216075  0.4242148993216387
  0.5576705586892831  0.6491982839292431  0.4097872408609018
  0.2468117546941490  0.3518702983007149  0.5677528544880541
  0.2402808041443927  0.3150259101658439  0.1297049864131521
 
  0.00000000E+00  0.00000000E+00  0.00000000E+00
  0.00000000E+00  0.00000000E+00  0.00000000E+00
  0.00000000E+00  0.00000000E+00  0.00000000E+00
  0.00000000E+00  0.00000000E+00  0.00000000E+00
  0.00000000E+00  0.00000000E+00  0.00000000E+00
  0.00000000E+00  0.00000000E+00  0.00000000E+00
  0.00000000E+00  0.00000000E+00  0.00000000E+00
  0.00000000E+00  0.00000000E+00  0.00000000E+00
  0.00000000E+00  0.00000000E+00  0.00000000E+00
  0.00000000E+00  0.00000000E+00  0.00000000E+00
  0.00000000E+00  0.00000000E+00  0.00000000E+00
  0.00000000E+00  0.00000000E+00  0.00000000E+00
  0.00000000E+00  0.00000000E+00  0.00000000E+00
