Sr1 Nb5 H18                             
   1.00000000000000     
     3.6054722795316607   -0.0137082424710461   -0.0544643166383642
    -0.0491291811762520    6.5938945512608615    0.0232194886375764
    -1.6358367644184435   -1.3317977318180241    7.5895992364766220
   H    Nb   H    Nb   H    Nb   H    Nb   H    Sr
     2     1     4     1     3     2     3     1     6     1
Direct
  0.3823962991240052  0.9729069041360534  0.3360386232738465
  0.0309705587317767  0.0016199848303631  0.4766699350447071
  0.8010594530742369  0.9304117062360012  0.2302934374805698
  0.6583338694294454  0.4870282566116365  0.4777956721726258
  0.1468803844952896  0.4863648601944106  0.4858187993600462
  0.7266808430853874  0.6436666128657835  0.0830392971360579
  0.5640819628847902  0.6928353829582499  0.2921092865004440
  0.7850024647325982  0.4258627174631121  0.2331630279980585
  0.2435814332056841  0.4338205212156053  0.1454023098191489
  0.7894415118700220  0.3303306351149775 -0.0045565302044266
  0.0749500062899106  0.6897530846757135  0.2941027871870650
  0.5974750567768319  0.0637712931291995  0.8919133235159713
  0.4227334104879211  0.7428317590027339  0.5121613882235854
  0.3666557802338231  0.8906948040057596  0.0191083831796665
  0.0794233918655995  0.1236954612719043  0.8389392727679822
  0.0913967771581954  0.1962136919977367  0.2605611771207560
  0.4079582285232445  0.2337564118717786  0.4979635567463492
  0.5289234052699147  0.3034750625037261  0.7507721274107819
  0.5571750986281562  0.7649343687516869  0.7656755419649383
  0.9506278323531300  0.2706091584506455  0.5965963088086561
  0.5127301108601890  0.1609311639456281  0.1234767626594107
  0.9694457386440767  0.7598449571150635  0.6069161234007340
  0.5860845462075184  0.0167988977204878  0.6337092390874089
  0.1017368360682482  0.5485653039317393  0.8555301493456219
 
  0.00000000E+00  0.00000000E+00  0.00000000E+00
  0.00000000E+00  0.00000000E+00  0.00000000E+00
  0.00000000E+00  0.00000000E+00  0.00000000E+00
  0.00000000E+00  0.00000000E+00  0.00000000E+00
  0.00000000E+00  0.00000000E+00  0.00000000E+00
  0.00000000E+00  0.00000000E+00  0.00000000E+00
  0.00000000E+00  0.00000000E+00  0.00000000E+00
  0.00000000E+00  0.00000000E+00  0.00000000E+00
  0.00000000E+00  0.00000000E+00  0.00000000E+00
  0.00000000E+00  0.00000000E+00  0.00000000E+00
  0.00000000E+00  0.00000000E+00  0.00000000E+00
  0.00000000E+00  0.00000000E+00  0.00000000E+00
  0.00000000E+00  0.00000000E+00  0.00000000E+00
  0.00000000E+00  0.00000000E+00  0.00000000E+00
  0.00000000E+00  0.00000000E+00  0.00000000E+00
  0.00000000E+00  0.00000000E+00  0.00000000E+00
  0.00000000E+00  0.00000000E+00  0.00000000E+00
  0.00000000E+00  0.00000000E+00  0.00000000E+00
  0.00000000E+00  0.00000000E+00  0.00000000E+00
  0.00000000E+00  0.00000000E+00  0.00000000E+00
  0.00000000E+00  0.00000000E+00  0.00000000E+00
  0.00000000E+00  0.00000000E+00  0.00000000E+00
  0.00000000E+00  0.00000000E+00  0.00000000E+00
  0.00000000E+00  0.00000000E+00  0.00000000E+00
