Sr2 Nb1 H8                              
   1.00000000000000     
     3.8124169331682469    0.4468487467870567   -0.3807430250633323
     2.0057761997003456    6.3820347873124161   -1.3529805580237997
     0.8767908074625503    1.2730102744502025    5.7946863324342637
   H    Sr   H    Nb   Sr
     7     1     1     1     1
Direct
  0.3411058951120918  0.4702607991458209  0.2608310648603785
  0.3350868146081041  0.8949070789370682  0.0152278529486380
  0.5582141808686256 -0.0083146356902198  0.4760008169690149
  0.4100005759363948  0.2066348738840982  0.0158292947923153
  0.7421320393857975  0.7251154059799219  0.7107017260047616
  0.8070039134908958  0.8861168357436433  0.0108559675746921
  0.2464512399388832  0.2968641985991508  0.6547599700751613
 -0.0540377542342893  0.1714297287757148  0.3067038101068655
  0.0213883573261461  0.0071728981976786  0.6934336614898202
  0.4991145040283221  0.0186492482324633  0.7851516116889172
  0.3510982335390250  0.5613975681946556  0.8634532234894428
 
  0.00000000E+00  0.00000000E+00  0.00000000E+00
  0.00000000E+00  0.00000000E+00  0.00000000E+00
  0.00000000E+00  0.00000000E+00  0.00000000E+00
  0.00000000E+00  0.00000000E+00  0.00000000E+00
  0.00000000E+00  0.00000000E+00  0.00000000E+00
  0.00000000E+00  0.00000000E+00  0.00000000E+00
  0.00000000E+00  0.00000000E+00  0.00000000E+00
  0.00000000E+00  0.00000000E+00  0.00000000E+00
  0.00000000E+00  0.00000000E+00  0.00000000E+00
  0.00000000E+00  0.00000000E+00  0.00000000E+00
  0.00000000E+00  0.00000000E+00  0.00000000E+00
